     Program PWSCF v.6.4.1 starts on  8Jun2021 at 15:57:59

     R & G space division:  proc/nbgrp/npool/nimage =      64
     Waiting for input...
     Reading input from standard input

     Current dimensions of program PWSCF are:
     Max number of different atomic species (ntypx) = 10
     Max number of k-points (npk) =  40000
     Max angular momentum in pseudopotentials (lmaxx) =  3
               file N.pbe-n-kjpaw_psl.1.0.0.UPF: wavefunction(s)  2S renormalized
               file C.pbe-n-kjpaw_psl.1.0.0.UPF: wavefunction(s)  2S 2P renormalized
               file C.pbe-n-kjpaw_psl.1.0.0.UPF: wavefunction(s)  2S 2P renormalized
               file C.pbe-n-kjpaw_psl.1.0.0.UPF: wavefunction(s)  2S 2P renormalized

     Parameters for DFT-D3 Dispersion Correction:
       Reference C6 values for interpolation:

         atom   Coordination number   C6
         B          0.000           214.36
         B          0.971           150.74
         B          1.944           106.23
         B          2.913            62.89
         B          4.586            56.06
         C1         0.000            98.23
         C1         0.987            86.49
         C1         1.998            58.72
         C1         2.999            51.56
         C1         3.984            36.41
         C2         0.000            98.23
         C2         0.987            86.49
         C2         1.998            58.72
         C2         2.999            51.56
         C2         3.984            36.41
         C3         0.000            98.23
         C3         0.987            86.49
         C3         1.998            58.72
         C3         2.999            51.56
         C3         3.984            36.41
         N          0.000            50.54
         N          0.994            44.25
         N          2.014            39.35
         N          2.990            31.16

       Values used:

         atom   Coordination number  R0_AB[au]  C6      C8
         B          3.325            3.039     62.90   2506.25
         B          3.317            3.039     62.90   2506.44
         B          3.317            3.039     62.90   2506.44
         B          3.325            3.039     62.90   2506.25
         B          3.327            3.039     62.90   2506.21
         B          3.324            3.039     62.90   2506.27
         B          3.326            3.039     62.90   2506.23
         B          3.325            3.039     62.90   2506.26
         B          3.323            3.039     62.90   2506.29
         B          3.303            3.039     62.91   2506.75
         B          3.322            3.039     62.90   2506.33
         B          3.329            3.039     62.90   2506.16
         B          3.325            3.039     62.90   2506.25
         B          3.324            3.039     62.90   2506.27
         B          3.325            3.039     62.90   2506.25
         B          3.327            3.039     62.90   2506.21
         B          3.298            3.039     62.91   2506.88
         B          3.297            3.039     62.91   2506.89
         B          3.336            3.039     62.89   2505.99
         B          3.329            3.039     62.90   2506.16
         B          3.327            3.039     62.90   2506.21
         B          3.323            3.039     62.90   2506.31
         B          3.319            3.039     62.90   2506.40
         B          3.314            3.039     62.90   2506.50
         C2         3.249            2.750     49.42   1429.45
         B          3.297            3.039     62.91   2506.89
         B          3.322            3.039     62.90   2506.33
         B          3.325            3.039     62.90   2506.25
         B          3.321            3.039     62.90   2506.36
         B          3.320            3.039     62.90   2506.38
         B          3.315            3.039     62.90   2506.49
         B          3.314            3.039     62.90   2506.50
         B          3.298            3.039     62.91   2506.88
         B          3.303            3.039     62.91   2506.75
         B          3.317            3.039     62.90   2506.44
         B          3.316            3.039     62.90   2506.45
         B          3.318            3.039     62.90   2506.41
         B          3.320            3.039     62.90   2506.38
         B          3.319            3.039     62.90   2506.40
         B          3.327            3.039     62.90   2506.21
         B          3.323            3.039     62.90   2506.29
         B          3.317            3.039     62.90   2506.44
         B          3.319            3.039     62.90   2506.40
         B          3.316            3.039     62.90   2506.45
         B          3.321            3.039     62.90   2506.36
         B          3.323            3.039     62.90   2506.31
         B          3.325            3.039     62.90   2506.25
         B          3.325            3.039     62.90   2506.26
         B          3.325            3.039     62.90   2506.25
         N          3.129            2.478     31.22    688.74
         N          3.128            2.478     31.22    688.75
         N          3.125            2.478     31.22    688.78
         N          3.128            2.478     31.22    688.75
         N          3.130            2.478     31.22    688.73
         N          3.129            2.478     31.22    688.74
         N          3.129            2.478     31.22    688.75
         N          3.129            2.478     31.22    688.75
         N          3.129            2.478     31.22    688.74
         N          3.125            2.478     31.22    688.79
         N          3.123            2.478     31.22    688.80
[...]
         N          3.125            2.478     31.22    688.78
         N          3.126            2.478     31.22    688.77
         N          3.126            2.478     31.22    688.77
         N          3.127            2.478     31.22    688.76
         N          3.127            2.478     31.22    688.76
         N          3.129            2.478     31.22    688.74
         N          3.129            2.478     31.22    688.74
         N          3.128            2.478     31.22    688.75
         N          3.129            2.478     31.22    688.74
         N          3.126            2.478     31.22    688.77
         N          3.127            2.478     31.22    688.77
         N          3.129            2.478     31.22    688.75
         N          3.130            2.478     31.22    688.74
         N          3.129            2.478     31.22    688.75
         N          3.129            2.478     31.22    688.74

         Molecular C6 ( Ry / a.u.^6 ) =    437697.49

     gamma-point specific algorithms are used

     Message from routine setup:
     DEPRECATED: symmetry with ibrav=0, use correct ibrav instead

     bravais-lattice index     =            0
     lattice parameter (alat)  =      33.2346  a.u.
     unit-cell volume          =   36182.9937 (a.u.)^3
     number of atoms/cell      =           98
     number of atomic types    =            5
     number of electrons       =       391.00
     number of Kohn-Sham states=          245
     kinetic-energy cutoff     =      40.0000  Ry
     charge density cutoff     =     160.0000  Ry
     convergence threshold     =      1.0E-06
     mixing beta               =       0.7000
     number of iterations used =            8  plain     mixing
     Exchange-correlation      = SLA PW PBX PBC ( 1  4  3  4 0 0)
     nstep                     =           50

     celldm(1)=  33.234611  celldm(2)=   0.000000  celldm(3)=   0.000000
     celldm(4)=   0.000000  celldm(5)=   0.000000  celldm(6)=   0.000000

     crystal axes: (cart. coord. in units of alat)
               a(1) = (   1.000615  -0.000340   0.000000 )
               a(2) = (  -0.500602   0.866388   0.000000 )
               a(3) = (   0.000000   0.000000   1.137204 )

     reciprocal axes: (cart. coord. in units 2 pi/alat)
               b(1) = (  0.999581  0.577561  0.000000 )
               b(2) = (  0.000392  1.154443  0.000000 )
               b(3) = (  0.000000  0.000000  0.879350 )

     PseudoPot. # 1 for B  read from file:
     ./pseudo/B.pbe-n-kjpaw_psl.1.0.0.UPF
     MD5 check sum: 8c825a5969375aca5c2c6ad5945b3059
     Pseudo is Projector augmented-wave + core cor, Zval =  3.0
     Generated using "atomic" code by A. Dal Corso v.6.3
     Shape of augmentation charge: PSQ
     Using radial grid of 1059 points,  4 beta functions with:
                l(1) =   0
                l(2) =   0
                l(3) =   1
                l(4) =   1
     Q(r) pseudized with 0 coefficients

     PseudoPot. # 2 for N  read from file:
     ./pseudo/N.pbe-n-kjpaw_psl.1.0.0.UPF
     MD5 check sum: 14c48229446f9f2d411169a3abcbc3fa
     Pseudo is Projector augmented-wave + core cor, Zval =  5.0
     Generated using "atomic" code by A. Dal Corso v.6.3
     Shape of augmentation charge: PSQ
     Using radial grid of 1085 points,  4 beta functions with:
                l(1) =   0
                l(2) =   0
                l(3) =   1
                l(4) =   1
     Q(r) pseudized with 0 coefficients

     PseudoPot. # 3 for C  read from file:
     ./pseudo/C.pbe-n-kjpaw_psl.1.0.0.UPF
     MD5 check sum: 5f16ad9a65e90284d1d834d4ab3b0f7d
     Pseudo is Projector augmented-wave + core cor, Zval =  4.0
     Generated using "atomic" code by A. Dal Corso v.6.3
     Shape of augmentation charge: PSQ
     Using radial grid of 1073 points,  4 beta functions with:
                l(1) =   0
                l(2) =   0
                l(3) =   1
                l(4) =   1
     Q(r) pseudized with 0 coefficients

[...]

     atomic species   valence    mass     pseudopotential
        B              3.00    10.00000     B ( 1.00)
        N              5.00    14.00000     N ( 1.00)
        C1             4.00    12.00000     C ( 1.00)
        C2             4.00    12.00000     C ( 1.00)
        C3             4.00    12.00000     C ( 1.00)

     Starting magnetic structure
     atomic species   magnetization
        B            0.000
        N            0.000
        C1           1.000
        C2           0.000
        C3           0.000

      2 Sym. Ops. (no inversion) found

   Cartesian axes

     site n.     atom                  positions (alat units)
         1           B   tau(   1) = (  -0.0000660   0.0821824   0.5686018  )
         2           B   tau(   2) = (  -0.0714332   0.2062278   0.5686018  )
         3           B   tau(   3) = (  -0.1430694   0.3300929   0.5686018  )
         4           B   tau(   4) = (  -0.2149073   0.4537321   0.5686018  )
         5           B   tau(   5) = (  -0.2861469   0.5775386   0.5686018  )
         6           B   tau(   6) = (  -0.3574467   0.7014189   0.5686018  )
         7           B   tau(   7) = (  -0.4290529   0.8250794   0.5686018  )
         8           B   tau(   8) = (   0.1428556   0.0818272   0.5686018  )
         9           B   tau(   9) = (   0.0711914   0.2053505   0.5686018  )
        10           B   tau(  10) = (   0.0002723   0.3301172   0.5686018  )
[...]

     number of k points=     1
                       cart. coord. in units 2pi/alat
        k(    1) = (   0.0000000   0.0000000   0.0000000), wk =   1.0000000

     Occupations read from input

      Spin-up

[...]

      Spin-down

[...]

     Check: negative core charge=   -0.000006

     Initial potential from superposition of free atoms

     starting charge  390.98597, renormalised to  391.00000

     negative rho (up, down):  5.503E-02 6.200E-03
     Starting wfcs are  392 randomized atomic wfcs
     Checking if some PAW data can be deallocated...

     Self-consistent Calculation

[...]

     iteration #  8     ecut=    40.00 Ry     beta= 0.70
     CG style diagonalization
     c_bands:  1 eigenvalues not converged
     ethr =  8.02E-08,  avg # of iterations =  3.8

[...]

     total energy              =   -1940.48613135 Ry
     Harris-Foulkes estimate   =   -1940.48613133 Ry
     estimated scf accuracy    <       0.00000006 Ry

[...]

     iteration # 13     ecut=    40.00 Ry     beta= 0.70
     CG style diagonalization
     ethr =  1.64E-11,  avg # of iterations =  3.4

[...]

     Magnetic moment per site:
     atom:    1    charge:    0.8504    magn:   -0.0000    constr:    0.0000
     atom:    2    charge:    0.8457    magn:    0.0003    constr:    0.0000
     atom:    3    charge:    0.8471    magn:    0.0007    constr:    0.0000
     atom:    4    charge:    0.8498    magn:   -0.0000    constr:    0.0000
     atom:    5    charge:    0.8522    magn:    0.0000    constr:    0.0000
     atom:    6    charge:    0.8502    magn:    0.0001    constr:    0.0000
     atom:    7    charge:    0.8509    magn:   -0.0000    constr:    0.0000
     atom:    8    charge:    0.8495    magn:    0.0001    constr:    0.0000
     atom:    9    charge:    0.8507    magn:   -0.0003    constr:    0.0000
     atom:   10    charge:    0.8404    magn:    0.0030    constr:    0.0000
     atom:   11    charge:    0.8471    magn:    0.0005    constr:    0.0000
     atom:   12    charge:    0.8535    magn:    0.0001    constr:    0.0000
     atom:   13    charge:    0.8527    magn:   -0.0000    constr:    0.0000
     atom:   14    charge:    0.8502    magn:    0.0001    constr:    0.0000
     atom:   15    charge:    0.8503    magn:   -0.0001    constr:    0.0000
     atom:   16    charge:    0.8539    magn:    0.0001    constr:    0.0000
     atom:   17    charge:    0.8607    magn:    0.0025    constr:    0.0000
     atom:   18    charge:    0.8512    magn:    0.0074    constr:    0.0000
     atom:   19    charge:    0.8610    magn:   -0.0004    constr:    0.0000
     atom:   20    charge:    0.8535    magn:    0.0001    constr:    0.0000
     atom:   21    charge:    0.8522    magn:    0.0000    constr:    0.0000
     atom:   22    charge:    0.8476    magn:    0.0000    constr:    0.0000
     atom:   23    charge:    0.8442    magn:    0.0003    constr:    0.0000
     atom:   24    charge:    0.8436    magn:   -0.0007    constr:    0.0000
     atom:   25    charge:    1.6282    magn:   -0.0263    constr:    0.0000
     atom:   26    charge:    0.8512    magn:    0.0074    constr:    0.0000
     atom:   27    charge:    0.8471    magn:    0.0005    constr:    0.0000
     atom:   28    charge:    0.8498    magn:   -0.0000    constr:    0.0000
     atom:   29    charge:    0.8470    magn:    0.0001    constr:    0.0000
     atom:   30    charge:    0.8482    magn:    0.0000    constr:    0.0000
     atom:   31    charge:    0.8484    magn:   -0.0003    constr:    0.0000
     atom:   32    charge:    0.8436    magn:   -0.0007    constr:    0.0000
     atom:   33    charge:    0.8607    magn:    0.0025    constr:    0.0000
     atom:   34    charge:    0.8404    magn:    0.0030    constr:    0.0000
     atom:   35    charge:    0.8471    magn:    0.0007    constr:    0.0000
     atom:   36    charge:    0.8464    magn:    0.0003    constr:    0.0000
     atom:   37    charge:    0.8463    magn:   -0.0000    constr:    0.0000
     atom:   38    charge:    0.8482    magn:    0.0000    constr:    0.0000
     atom:   39    charge:    0.8442    magn:    0.0003    constr:    0.0000
     atom:   40    charge:    0.8539    magn:    0.0001    constr:    0.0000
     atom:   41    charge:    0.8507    magn:   -0.0003    constr:    0.0000
     atom:   42    charge:    0.8457    magn:    0.0003    constr:    0.0000
     atom:   43    charge:    0.8458    magn:   -0.0000    constr:    0.0000
     atom:   44    charge:    0.8464    magn:    0.0003    constr:    0.0000
     atom:   45    charge:    0.8470    magn:    0.0001    constr:    0.0000
     atom:   46    charge:    0.8476    magn:    0.0000    constr:    0.0000
     atom:   47    charge:    0.8503    magn:   -0.0001    constr:    0.0000
     atom:   48    charge:    0.8495    magn:    0.0001    constr:    0.0000
     atom:   49    charge:    0.8504    magn:   -0.0000    constr:    0.0000
     atom:   50    charge:    2.7550    magn:    0.0005    constr:    0.0000
     atom:   51    charge:    2.7515    magn:   -0.0001    constr:    0.0000
     atom:   52    charge:    2.7455    magn:    0.0029    constr:    0.0000
     atom:   53    charge:    2.7537    magn:    0.0000    constr:    0.0000
     atom:   54    charge:    2.7540    magn:    0.0001    constr:    0.0000
     atom:   55    charge:    2.7510    magn:    0.0000    constr:    0.0000
     atom:   56    charge:    2.7500    magn:   -0.0000    constr:    0.0000
     atom:   57    charge:    2.7507    magn:    0.0003    constr:    0.0000
     atom:   58    charge:    2.7526    magn:    0.0039    constr:    0.0000
     atom:   59    charge:    2.7470    magn:    0.0065    constr:    0.0000
     atom:   60    charge:    2.7434    magn:    0.0123    constr:    0.0000
[...]
     atom:   84    charge:    2.7455    magn:    0.0029    constr:    0.0000
     atom:   85    charge:    2.7498    magn:    0.0004    constr:    0.0000
     atom:   86    charge:    2.7508    magn:   -0.0001    constr:    0.0000
     atom:   87    charge:    2.7501    magn:   -0.0000    constr:    0.0000
     atom:   88    charge:    2.7498    magn:    0.0002    constr:    0.0000
     atom:   89    charge:    2.7558    magn:    0.0003    constr:    0.0000
     atom:   90    charge:    2.7526    magn:    0.0039    constr:    0.0000
     atom:   91    charge:    2.7515    magn:   -0.0001    constr:    0.0000
     atom:   92    charge:    2.7557    magn:   -0.0000    constr:    0.0000
     atom:   93    charge:    2.7498    magn:    0.0004    constr:    0.0000
     atom:   94    charge:    2.7524    magn:    0.0001    constr:    0.0000
     atom:   95    charge:    2.7543    magn:    0.0000    constr:    0.0000
     atom:   96    charge:    2.7562    magn:    0.0000    constr:    0.0000
     atom:   97    charge:    2.7507    magn:    0.0003    constr:    0.0000
     atom:   98    charge:    2.7550    magn:    0.0005    constr:    0.0000

     End of self-consistent calculation

 ------ SPIN UP ------------

[...]

 ------ SPIN DOWN ----------

          k = 0.0000 0.0000 0.0000 ( 77329 PWs)   bands (ev):

   -21.7510 -21.5403 -21.3685 -21.3605 -21.3435 -21.2831 -21.2301 -20.8194
   -20.6254 -20.6080 -20.6059 -20.5234 -20.5116 -20.3914 -20.2661 -20.2589
   -20.2394 -20.0966 -20.0862 -19.5486 -19.3696 -19.3691 -19.3654 -19.3544
   -19.3516 -19.3424 -19.3365 -19.3028 -19.2919 -19.1368 -19.1313 -18.9978
   -18.9458 -18.9445 -18.9161 -18.7444 -18.7385 -18.5154 -18.5085 -18.4953
   -18.4852 -18.4237 -18.4030 -18.3562 -18.3309 -18.3275 -18.3123 -16.8917
   -14.7832 -13.0526 -12.7421 -12.7344 -12.7240 -12.6906 -12.6854 -12.6175
   -12.5426 -12.5082 -12.5036 -12.4410 -12.3858 -12.1263 -12.0441 -12.0304
   -12.0054 -11.9468 -11.9300 -11.5084 -11.3941 -11.3776 -11.3652 -11.3590
   -11.3469 -11.3354 -11.3352 -11.2852 -11.2708 -11.0664 -11.0036 -10.8465
   -10.6967 -10.6848 -10.6427 -10.6387 -10.4783 -10.0418 -10.0084  -9.9734
    -9.8986  -9.8462  -9.7787  -9.3712  -9.2972  -9.2871  -9.2769  -9.2541
    -9.2497  -9.1934  -9.0244  -8.9009  -8.8872  -8.8709  -8.8704  -8.8574
    -8.8516  -8.8411  -8.8406  -8.8264  -8.8033  -8.8012  -8.7953  -8.7936
    -8.7808  -8.7794  -8.7778  -8.7202  -8.7145  -8.6395  -8.6293  -8.6236
    -8.4459  -8.4144  -8.1691  -8.1612  -8.1608  -8.0948  -8.0588  -7.8814
    -7.8257  -7.7921  -7.7773  -7.7739  -7.6898  -7.6770  -7.5223  -7.4725
    -7.4690  -7.4384  -7.4232  -7.4112  -7.4075  -7.3809  -7.3688  -7.3230
    -7.3050  -7.3003  -7.2831  -7.2506  -7.1849  -7.1672  -7.1539  -7.0051
    -7.0021  -6.9713  -6.9186  -6.7650  -6.6126  -6.4863  -6.2015  -6.1630
    -6.1450  -6.1324  -6.0728  -6.0350  -6.0323  -6.0289  -6.0184  -6.0181
    -6.0075  -5.9995  -5.9654  -5.9606  -5.8107  -5.7735  -5.7557  -5.6490
    -5.4837  -5.4176  -5.4104  -5.3967  -5.2689  -5.1838  -5.0369  -5.0203
    -4.7596  -4.7390  -4.7206  -4.7171  -4.6306  -4.6185  -4.5170  -4.4778
    -4.4753  -4.4693  -4.1691  -2.8671   0.1680   0.1893   0.7102   0.7361
     0.7403   0.7516   0.7767   0.7821   0.7961   0.8183   0.8217   0.8225
     0.8253   0.8404   0.8515   0.8885   0.9145   0.9201   0.9372   0.9605
     1.0270   1.1778   1.2585   1.2772   1.2802   1.3157   1.3283   1.3296
     1.3333   1.3404   1.3431   1.3693   1.3992   1.4398   1.4416   1.4424
     1.4494   1.4524   1.4782   1.8873   2.1137   2.1438   2.3252   2.3415
     2.3433   2.3511   2.3603   2.3624   2.4318

     highest occupied, lowest unoccupied level (ev):    -3.5477   -2.8671

!    total energy              =   -1940.48613138 Ry
     Harris-Foulkes estimate   =   -1940.48613138 Ry
     estimated scf accuracy    <          9.5E-09 Ry

     total all-electron energy =     -7770.310608 Ry

     The total energy is the sum of the following terms:

     one-electron contribution =  -10659.32250218 Ry
     hartree contribution      =    5415.53865717 Ry
     xc contribution           =    -430.86012631 Ry
     ewald contribution        =    4377.60806441 Ry
     DFT-D3 Dispersion         =      -0.27039965 Ry
     one-center paw contrib.   =    -643.17982482 Ry

     total magnetization       =     1.00 Bohr mag/cell
     absolute magnetization    =     1.20 Bohr mag/cell

     convergence has been achieved in  13 iterations

     negative rho (up, down):  4.867E-01 5.676E-03

     Forces acting on atoms (cartesian axes, Ry/au):

     atom    1 type  1   force =     0.00004203    0.00002278    0.00000000
     atom    2 type  1   force =    -0.00002617    0.00003576    0.00000000
     atom    3 type  1   force =     0.00003919   -0.00006519    0.00000000
     atom    4 type  1   force =     0.00001956   -0.00004031    0.00000000
     atom    5 type  1   force =     0.00001722    0.00012987    0.00000000
     atom    6 type  1   force =     0.00005049    0.00006049    0.00000000
     atom    7 type  1   force =     0.00006947   -0.00000831    0.00000000
     atom    8 type  1   force =     0.00000913   -0.00003628    0.00000000
     atom    9 type  1   force =    -0.00003739    0.00001752    0.00000000
     atom   10 type  1   force =     0.00006255    0.00006719    0.00000000
     atom   11 type  1   force =     0.00004946   -0.00002914    0.00000000
     atom   12 type  1   force =    -0.00017062    0.00001997    0.00000000
     atom   13 type  1   force =    -0.00002565    0.00002198    0.00000000
     atom   14 type  1   force =    -0.00002277   -0.00004568    0.00000000
     atom   15 type  1   force =     0.00002594    0.00000087    0.00000000
     atom   16 type  1   force =    -0.00003756   -0.00000687    0.00000000
     atom   17 type  1   force =    -0.00002459    0.00015323    0.00000000
     atom   18 type  1   force =     0.00009281    0.00006118    0.00000000
     atom   19 type  1   force =    -0.00008858    0.00002328    0.00000000
     atom   20 type  1   force =    -0.00011713    0.00014001    0.00000000
     atom   21 type  1   force =    -0.00011223   -0.00004682    0.00000000
     atom   22 type  1   force =    -0.00002161    0.00001820    0.00000000
     atom   23 type  1   force =     0.00002792    0.00004068    0.00000000
     atom   24 type  1   force =    -0.00006470    0.00007322    0.00000000
     atom   25 type  4   force =    -0.00003806    0.00001034    0.00000000
     atom   26 type  1   force =    -0.00001311   -0.00013887    0.00000000
     atom   27 type  1   force =     0.00005047   -0.00006241    0.00000000
     atom   28 type  1   force =    -0.00001118    0.00005546    0.00000000
     atom   29 type  1   force =     0.00002432    0.00000689    0.00000000
     atom   30 type  1   force =     0.00007424    0.00000104    0.00000000
     atom   31 type  1   force =    -0.00001600   -0.00001549    0.00000000
     atom   32 type  1   force =    -0.00006815    0.00000880    0.00000000
     atom   33 type  1   force =    -0.00010742   -0.00004981    0.00000000
     atom   34 type  1   force =    -0.00003042   -0.00009698    0.00000000
     atom   35 type  1   force =     0.00006266    0.00004226    0.00000000
     atom   36 type  1   force =     0.00006815    0.00001750    0.00000000
     atom   37 type  1   force =     0.00007537   -0.00004687    0.00000000
     atom   38 type  1   force =     0.00003422   -0.00010286    0.00000000
     atom   39 type  1   force =    -0.00003551   -0.00009146    0.00000000
     atom   40 type  1   force =    -0.00006877   -0.00001129    0.00000000
     atom   41 type  1   force =    -0.00010133   -0.00000361    0.00000000
     atom   42 type  1   force =    -0.00005380    0.00005674    0.00000000
     atom   43 type  1   force =     0.00010236   -0.00002537    0.00000000
     atom   44 type  1   force =     0.00004717   -0.00005250    0.00000000
     atom   45 type  1   force =     0.00004078   -0.00004742    0.00000000
     atom   46 type  1   force =     0.00000333    0.00000110    0.00000000
     atom   47 type  1   force =     0.00007039   -0.00000420    0.00000000
     atom   48 type  1   force =     0.00008728    0.00004813    0.00000000
     atom   49 type  1   force =     0.00005941    0.00002809    0.00000000
     atom   50 type  2   force =     0.00010410    0.00003444    0.00000000
     atom   51 type  2   force =     0.00002310    0.00011042    0.00000000
     atom   52 type  2   force =     0.00011835    0.00005834    0.00000000
     atom   53 type  2   force =     0.00010781   -0.00008195    0.00000000
     atom   54 type  2   force =    -0.00012464   -0.00005779    0.00000000
     atom   55 type  2   force =    -0.00011078    0.00000112    0.00000000
     atom   56 type  2   force =    -0.00002970    0.00000399    0.00000000
     atom   57 type  2   force =     0.00006791    0.00011270    0.00000000
     atom   58 type  2   force =     0.00001143    0.00001032    0.00000000
     atom   59 type  2   force =    -0.00000420    0.00008454    0.00000000
     atom   60 type  2   force =     0.00016407    0.00003868    0.00000000
[...]
     atom   84 type  2   force =     0.00003106   -0.00010357    0.00000000
     atom   85 type  2   force =     0.00001402   -0.00011048    0.00000000
     atom   86 type  2   force =    -0.00002803   -0.00000308    0.00000000
     atom   87 type  2   force =    -0.00011292   -0.00001324    0.00000000
     atom   88 type  2   force =    -0.00005985   -0.00010156    0.00000000
     atom   89 type  2   force =     0.00003113   -0.00004523    0.00000000
     atom   90 type  2   force =     0.00000376    0.00000026    0.00000000
     atom   91 type  2   force =    -0.00011117   -0.00010064    0.00000000
     atom   92 type  2   force =     0.00005879   -0.00009255    0.00000000
     atom   93 type  2   force =     0.00004090   -0.00001602    0.00000000
     atom   94 type  2   force =    -0.00001587   -0.00004176    0.00000000
     atom   95 type  2   force =    -0.00018283   -0.00004820    0.00000000
     atom   96 type  2   force =    -0.00016751   -0.00003741    0.00000000
     atom   97 type  2   force =    -0.00010982   -0.00014020    0.00000000
     atom   98 type  2   force =    -0.00003094   -0.00015724    0.00000000

     Total force =     0.000960     Total SCF correction =     0.000097
     SCF correction compared to forces is large: reduce conv_thr to get better values

     Computing stress (Cartesian axis) and pressure

     negative rho (up, down):  4.867E-01 5.676E-03
          total   stress  (Ry/bohr**3)                   (kbar)     P=   -0.18
  -0.00000014   0.00000003   0.00000000         -0.02      0.00      0.00
   0.00000003  -0.00000011   0.00000000          0.00     -0.02      0.00
   0.00000000   0.00000000  -0.00000339          0.00      0.00     -0.50

     Writing output data file C2Cn.save/

     General routines

     Parallel routines

   This run was terminated on:  16:50:22   8Jun2021

   JOB DONE.