     Program PWSCF v.6.4.1 starts on  7Jun2021 at 22:45:25

     R & G space division:  proc/nbgrp/npool/nimage =      64
     Waiting for input...
     Reading input from standard input

     Current dimensions of program PWSCF are:
     Max number of different atomic species (ntypx) = 10
     Max number of k-points (npk) =  40000
     Max angular momentum in pseudopotentials (lmaxx) =  3
               file N.pbe-n-kjpaw_psl.1.0.0.UPF: wavefunction(s)  2S renormalized
               file C.pbe-n-kjpaw_psl.1.0.0.UPF: wavefunction(s)  2S 2P renormalized
               file C.pbe-n-kjpaw_psl.1.0.0.UPF: wavefunction(s)  2S 2P renormalized
               file C.pbe-n-kjpaw_psl.1.0.0.UPF: wavefunction(s)  2S 2P renormalized

     Parameters for DFT-D3 Dispersion Correction:
       Reference C6 values for interpolation:

         atom   Coordination number   C6
         B          0.000           214.36
         B          0.971           150.74
         B          1.944           106.23
         B          2.913            62.89
         B          4.586            56.06
         C1         0.000            98.23
         C1         0.987            86.49
         C1         1.998            58.72
         C1         2.999            51.56
         C1         3.984            36.41
         C2         0.000            98.23
         C2         0.987            86.49
         C2         1.998            58.72
         C2         2.999            51.56
         C2         3.984            36.41
         C3         0.000            98.23
         C3         0.987            86.49
         C3         1.998            58.72
         C3         2.999            51.56
         C3         3.984            36.41
         N          0.000            50.54
         N          0.994            44.25
         N          2.014            39.35
         N          2.990            31.16

       Values used:

         atom   Coordination number  R0_AB[au]  C6      C8
         B          3.323            3.039     62.90   2506.30
         B          3.323            3.039     62.90   2506.30
         B          3.323            3.039     62.90   2506.30
         B          3.323            3.039     62.90   2506.31
         B          3.323            3.039     62.90   2506.30
         B          3.323            3.039     62.90   2506.30
         B          3.323            3.039     62.90   2506.30
         B          3.323            3.039     62.90   2506.30
         B          3.323            3.039     62.90   2506.30
         B          3.325            3.039     62.90   2506.25
         B          3.323            3.039     62.90   2506.30
         B          3.323            3.039     62.90   2506.30
         B          3.323            3.039     62.90   2506.30
         B          3.323            3.039     62.90   2506.30
         B          3.323            3.039     62.90   2506.30
         B          3.323            3.039     62.90   2506.30
         B          3.317            3.039     62.90   2506.45
         B          3.319            3.039     62.90   2506.40
         B          3.323            3.039     62.90   2506.29
         B          3.323            3.039     62.90   2506.30
         B          3.323            3.039     62.90   2506.30
         B          3.323            3.039     62.90   2506.30
         B          3.323            3.039     62.90   2506.30
         B          3.317            3.039     62.90   2506.43
         C2         3.274            2.750     49.03   1417.98
         B          3.319            3.039     62.90   2506.40
         B          3.323            3.039     62.90   2506.30
         B          3.323            3.039     62.90   2506.31
         B          3.323            3.039     62.90   2506.30
         B          3.323            3.039     62.90   2506.30
         B          3.323            3.039     62.90   2506.30
         B          3.317            3.039     62.90   2506.43
         B          3.317            3.039     62.90   2506.45
         B          3.325            3.039     62.90   2506.25
         B          3.323            3.039     62.90   2506.30
         B          3.323            3.039     62.90   2506.30
         B          3.323            3.039     62.90   2506.30
         B          3.323            3.039     62.90   2506.30
         B          3.323            3.039     62.90   2506.30
         B          3.323            3.039     62.90   2506.30
         B          3.323            3.039     62.90   2506.30
         B          3.323            3.039     62.90   2506.30
         B          3.323            3.039     62.90   2506.30
         B          3.323            3.039     62.90   2506.30
         B          3.323            3.039     62.90   2506.30
         B          3.323            3.039     62.90   2506.30
         B          3.323            3.039     62.90   2506.30
         B          3.323            3.039     62.90   2506.30
         B          3.323            3.039     62.90   2506.30
         N          3.129            2.478     31.22    688.75
         N          3.129            2.478     31.22    688.75
         N          3.129            2.478     31.22    688.75
         N          3.129            2.478     31.22    688.75
         N          3.129            2.478     31.22    688.75
         N          3.129            2.478     31.22    688.75
         N          3.129            2.478     31.22    688.75
         N          3.129            2.478     31.22    688.75
         N          3.129            2.478     31.22    688.75
         N          3.136            2.478     31.22    688.68
         N          3.136            2.478     31.22    688.68
[...]
         N          3.129            2.478     31.22    688.75
         N          3.129            2.478     31.22    688.75
         N          3.129            2.478     31.22    688.75
         N          3.129            2.478     31.22    688.75
         N          3.129            2.478     31.22    688.75
         N          3.129            2.478     31.22    688.75
         N          3.129            2.478     31.22    688.75
         N          3.129            2.478     31.22    688.75
         N          3.129            2.478     31.22    688.75
         N          3.129            2.478     31.22    688.75
         N          3.129            2.478     31.22    688.75
         N          3.129            2.478     31.22    688.75
         N          3.129            2.478     31.22    688.75
         N          3.129            2.478     31.22    688.75
         N          3.129            2.478     31.22    688.75

         Molecular C6 ( Ry / a.u.^6 ) =    437644.59

     gamma-point specific algorithms are used

     Message from routine setup:
     DEPRECATED: symmetry with ibrav=0, use correct ibrav instead

     bravais-lattice index     =            0
     lattice parameter (alat)  =      33.2346  a.u.
     unit-cell volume          =   36104.5892 (a.u.)^3
     number of atoms/cell      =           98
     number of atomic types    =            5
     number of electrons       =       391.00
     number of Kohn-Sham states=          245
     kinetic-energy cutoff     =      40.0000  Ry
     charge density cutoff     =     160.0000  Ry
     convergence threshold     =      1.0E-06
     mixing beta               =       0.7000
     number of iterations used =            8  plain     mixing
     Exchange-correlation      = SLA PW PBX PBC ( 1  4  3  4 0 0)
     nstep                     =           50

     celldm(1)=  33.234611  celldm(2)=   0.000000  celldm(3)=   0.000000
     celldm(4)=   0.000000  celldm(5)=   0.000000  celldm(6)=   0.000000

     crystal axes: (cart. coord. in units of alat)
               a(1) = (   0.999334   0.000000   0.000000 )
               a(2) = (  -0.499667   0.865449   0.000000 )
               a(3) = (   0.000000   0.000000   1.137204 )

     reciprocal axes: (cart. coord. in units 2 pi/alat)
               b(1) = (  1.000666  0.577735  0.000000 )
               b(2) = (  0.000000  1.155470  0.000000 )
               b(3) = (  0.000000  0.000000  0.879350 )

     PseudoPot. # 1 for B  read from file:
     ./pseudo/B.pbe-n-kjpaw_psl.1.0.0.UPF
     MD5 check sum: 8c825a5969375aca5c2c6ad5945b3059
     Pseudo is Projector augmented-wave + core cor, Zval =  3.0
     Generated using "atomic" code by A. Dal Corso v.6.3
     Shape of augmentation charge: PSQ
     Using radial grid of 1059 points,  4 beta functions with:
                l(1) =   0
                l(2) =   0
                l(3) =   1
                l(4) =   1
     Q(r) pseudized with 0 coefficients

     PseudoPot. # 2 for N  read from file:
     ./pseudo/N.pbe-n-kjpaw_psl.1.0.0.UPF
     MD5 check sum: 14c48229446f9f2d411169a3abcbc3fa
     Pseudo is Projector augmented-wave + core cor, Zval =  5.0
     Generated using "atomic" code by A. Dal Corso v.6.3
     Shape of augmentation charge: PSQ
     Using radial grid of 1085 points,  4 beta functions with:
                l(1) =   0
                l(2) =   0
                l(3) =   1
                l(4) =   1
     Q(r) pseudized with 0 coefficients

     PseudoPot. # 3 for C  read from file:
     ./pseudo/C.pbe-n-kjpaw_psl.1.0.0.UPF
     MD5 check sum: 5f16ad9a65e90284d1d834d4ab3b0f7d
     Pseudo is Projector augmented-wave + core cor, Zval =  4.0
     Generated using "atomic" code by A. Dal Corso v.6.3
     Shape of augmentation charge: PSQ
     Using radial grid of 1073 points,  4 beta functions with:
                l(1) =   0
                l(2) =   0
                l(3) =   1
                l(4) =   1
     Q(r) pseudized with 0 coefficients

[...]

     atomic species   valence    mass     pseudopotential
        B              3.00    10.00000     B ( 1.00)
        N              5.00    14.00000     N ( 1.00)
        C1             4.00    12.00000     C ( 1.00)
        C2             4.00    12.00000     C ( 1.00)
        C3             4.00    12.00000     C ( 1.00)

     Starting magnetic structure
     atomic species   magnetization
        B            0.000
        N            0.000
        C1           1.000
        C2           0.000
        C3           0.000

      2 Sym. Ops. (no inversion) found

   Cartesian axes

     site n.     atom                  positions (alat units)
         1           B   tau(   1) = (  -0.0000000   0.0824309   0.5686018  )
         2           B   tau(   2) = (  -0.0713829   0.2060622   0.5686018  )
         3           B   tau(   3) = (  -0.1427568   0.3296890   0.5686018  )
         4           B   tau(   4) = (  -0.2141395   0.4533331   0.5686018  )
         5           B   tau(   5) = (  -0.2855266   0.5769736   0.5686018  )
         6           B   tau(   6) = (  -0.3569036   0.7005986   0.5686018  )
         7           B   tau(   7) = (  -0.4282799   0.8242336   0.5686018  )
         8           B   tau(   8) = (   0.1427700   0.0824283   0.5686018  )
         9           B   tau(   9) = (   0.0713829   0.2060622   0.5686018  )
        10           B   tau(  10) = (  -0.0000000   0.3296942   0.5686018  )
[...]
        98           N   tau(  98) = (   0.5002290   0.7837372   0.5686018  )

     number of k points=     1
                       cart. coord. in units 2pi/alat
        k(    1) = (   0.0000000   0.0000000   0.0000000), wk =   1.0000000

     Occupations read from input

      Spin-up

[...]

      Spin-down

[...]

     Check: negative core charge=   -0.000006

     Initial potential from superposition of free atoms

     starting charge  390.98597, renormalised to  391.00000

     negative rho (up, down):  5.501E-02 6.152E-03
     Starting wfcs are  392 randomized atomic wfcs
     Checking if some PAW data can be deallocated...

     Self-consistent Calculation

[...]

     iteration #  7     ecut=    40.00 Ry     beta= 0.70
     CG style diagonalization
     c_bands:  2 eigenvalues not converged
     ethr =  4.40E-07,  avg # of iterations =  3.4

[...]

     total energy              =   -1940.48605898 Ry
     Harris-Foulkes estimate   =   -1940.48605898 Ry
     estimated scf accuracy    <       0.00000006 Ry

[...]

     iteration # 13     ecut=    40.00 Ry     beta= 0.70
     CG style diagonalization
     ethr =  1.44E-11,  avg # of iterations =  3.5

[...]

     Magnetic moment per site:
     atom:    1    charge:    0.8503    magn:   -0.0000    constr:    0.0000
     atom:    2    charge:    0.8457    magn:    0.0003    constr:    0.0000
     atom:    3    charge:    0.8471    magn:    0.0007    constr:    0.0000
     atom:    4    charge:    0.8495    magn:   -0.0000    constr:    0.0000
     atom:    5    charge:    0.8522    magn:    0.0000    constr:    0.0000
     atom:    6    charge:    0.8503    magn:    0.0001    constr:    0.0000
     atom:    7    charge:    0.8509    magn:   -0.0000    constr:    0.0000
     atom:    8    charge:    0.8495    magn:    0.0001    constr:    0.0000
     atom:    9    charge:    0.8508    magn:   -0.0003    constr:    0.0000
     atom:   10    charge:    0.8406    magn:    0.0030    constr:    0.0000
     atom:   11    charge:    0.8471    magn:    0.0005    constr:    0.0000
     atom:   12    charge:    0.8532    magn:    0.0001    constr:    0.0000
     atom:   13    charge:    0.8527    magn:   -0.0000    constr:    0.0000
     atom:   14    charge:    0.8503    magn:    0.0001    constr:    0.0000
     atom:   15    charge:    0.8504    magn:   -0.0001    constr:    0.0000
     atom:   16    charge:    0.8539    magn:    0.0001    constr:    0.0000
     atom:   17    charge:    0.8609    magn:    0.0025    constr:    0.0000
     atom:   18    charge:    0.8517    magn:    0.0074    constr:    0.0000
     atom:   19    charge:    0.8609    magn:   -0.0004    constr:    0.0000
     atom:   20    charge:    0.8532    magn:    0.0001    constr:    0.0000
     atom:   21    charge:    0.8522    magn:    0.0000    constr:    0.0000
     atom:   22    charge:    0.8476    magn:    0.0000    constr:    0.0000
     atom:   23    charge:    0.8444    magn:    0.0003    constr:    0.0000
     atom:   24    charge:    0.8437    magn:   -0.0007    constr:    0.0000
     atom:   25    charge:    1.6285    magn:   -0.0263    constr:    0.0000
     atom:   26    charge:    0.8517    magn:    0.0074    constr:    0.0000
     atom:   27    charge:    0.8471    magn:    0.0005    constr:    0.0000
     atom:   28    charge:    0.8495    magn:   -0.0000    constr:    0.0000
     atom:   29    charge:    0.8471    magn:    0.0001    constr:    0.0000
     atom:   30    charge:    0.8484    magn:    0.0000    constr:    0.0000
     atom:   31    charge:    0.8486    magn:   -0.0003    constr:    0.0000
     atom:   32    charge:    0.8437    magn:   -0.0007    constr:    0.0000
     atom:   33    charge:    0.8609    magn:    0.0025    constr:    0.0000
     atom:   34    charge:    0.8406    magn:    0.0030    constr:    0.0000
     atom:   35    charge:    0.8471    magn:    0.0007    constr:    0.0000
     atom:   36    charge:    0.8466    magn:    0.0003    constr:    0.0000
     atom:   37    charge:    0.8465    magn:   -0.0000    constr:    0.0000
     atom:   38    charge:    0.8484    magn:    0.0000    constr:    0.0000
     atom:   39    charge:    0.8444    magn:    0.0003    constr:    0.0000
     atom:   40    charge:    0.8539    magn:    0.0001    constr:    0.0000
     atom:   41    charge:    0.8508    magn:   -0.0003    constr:    0.0000
     atom:   42    charge:    0.8457    magn:    0.0003    constr:    0.0000
     atom:   43    charge:    0.8457    magn:   -0.0000    constr:    0.0000
     atom:   44    charge:    0.8466    magn:    0.0003    constr:    0.0000
     atom:   45    charge:    0.8471    magn:    0.0001    constr:    0.0000
     atom:   46    charge:    0.8476    magn:    0.0000    constr:    0.0000
     atom:   47    charge:    0.8504    magn:   -0.0001    constr:    0.0000
     atom:   48    charge:    0.8495    magn:    0.0001    constr:    0.0000
     atom:   49    charge:    0.8503    magn:   -0.0000    constr:    0.0000
     atom:   50    charge:    2.7549    magn:    0.0005    constr:    0.0000
     atom:   51    charge:    2.7516    magn:   -0.0001    constr:    0.0000
     atom:   52    charge:    2.7456    magn:    0.0029    constr:    0.0000
     atom:   53    charge:    2.7533    magn:    0.0000    constr:    0.0000
     atom:   54    charge:    2.7539    magn:    0.0001    constr:    0.0000
     atom:   55    charge:    2.7511    magn:    0.0000    constr:    0.0000
     atom:   56    charge:    2.7500    magn:   -0.0000    constr:    0.0000
     atom:   57    charge:    2.7507    magn:    0.0003    constr:    0.0000
     atom:   58    charge:    2.7528    magn:    0.0039    constr:    0.0000
     atom:   59    charge:    2.7473    magn:    0.0064    constr:    0.0000
     atom:   60    charge:    2.7434    magn:    0.0123    constr:    0.0000
[...]
     atom:   84    charge:    2.7456    magn:    0.0029    constr:    0.0000
     atom:   85    charge:    2.7496    magn:    0.0004    constr:    0.0000
     atom:   86    charge:    2.7507    magn:   -0.0001    constr:    0.0000
     atom:   87    charge:    2.7501    magn:   -0.0000    constr:    0.0000
     atom:   88    charge:    2.7500    magn:    0.0002    constr:    0.0000
     atom:   89    charge:    2.7559    magn:    0.0003    constr:    0.0000
     atom:   90    charge:    2.7528    magn:    0.0039    constr:    0.0000
     atom:   91    charge:    2.7516    magn:   -0.0001    constr:    0.0000
     atom:   92    charge:    2.7556    magn:   -0.0000    constr:    0.0000
     atom:   93    charge:    2.7496    magn:    0.0004    constr:    0.0000
     atom:   94    charge:    2.7523    magn:    0.0001    constr:    0.0000
     atom:   95    charge:    2.7542    magn:    0.0000    constr:    0.0000
     atom:   96    charge:    2.7563    magn:    0.0000    constr:    0.0000
     atom:   97    charge:    2.7507    magn:    0.0003    constr:    0.0000
     atom:   98    charge:    2.7549    magn:    0.0005    constr:    0.0000

     End of self-consistent calculation

 ------ SPIN UP ------------

[...]

 ------ SPIN DOWN ----------

          k = 0.0000 0.0000 0.0000 ( 77321 PWs)   bands (ev):

   -21.7520 -21.5409 -21.3685 -21.3601 -21.3423 -21.2832 -21.2312 -20.8206
   -20.6250 -20.6084 -20.6061 -20.5239 -20.5111 -20.3905 -20.2655 -20.2592
   -20.2404 -20.0974 -20.0868 -19.5495 -19.3691 -19.3691 -19.3649 -19.3536
   -19.3517 -19.3421 -19.3368 -19.3035 -19.2919 -19.1374 -19.1314 -18.9978
   -18.9458 -18.9443 -18.9161 -18.7448 -18.7387 -18.5147 -18.5082 -18.4955
   -18.4862 -18.4240 -18.4027 -18.3560 -18.3306 -18.3271 -18.3119 -16.8923
   -14.7854 -13.0542 -12.7419 -12.7341 -12.7247 -12.6900 -12.6853 -12.6167
   -12.5426 -12.5079 -12.5031 -12.4417 -12.3858 -12.1265 -12.0443 -12.0303
   -12.0051 -11.9476 -11.9302 -11.5082 -11.3939 -11.3773 -11.3647 -11.3585
   -11.3465 -11.3358 -11.3349 -11.2857 -11.2711 -11.0668 -11.0039 -10.8471
   -10.6963 -10.6846 -10.6431 -10.6388 -10.4788 -10.0419 -10.0086  -9.9735
    -9.8980  -9.8463  -9.7786  -9.3717  -9.2967  -9.2873  -9.2769  -9.2538
    -9.2499  -9.1925  -9.0237  -8.9007  -8.8868  -8.8700  -8.8695  -8.8572
    -8.8517  -8.8413  -8.8408  -8.8260  -8.8029  -8.8012  -8.7953  -8.7932
    -8.7820  -8.7782  -8.7779  -8.7203  -8.7152  -8.6397  -8.6307  -8.6240
    -8.4458  -8.4156  -8.1693  -8.1600  -8.1598  -8.0951  -8.0585  -7.8819
    -7.8256  -7.7917  -7.7775  -7.7741  -7.6903  -7.6770  -7.5225  -7.4724
    -7.4696  -7.4382  -7.4232  -7.4104  -7.4068  -7.3810  -7.3684  -7.3225
    -7.3046  -7.3006  -7.2837  -7.2495  -7.1855  -7.1676  -7.1546  -7.0047
    -7.0018  -6.9703  -6.9180  -6.7655  -6.6132  -6.4867  -6.2023  -6.1630
    -6.1449  -6.1316  -6.0724  -6.0347  -6.0322  -6.0284  -6.0186  -6.0174
    -6.0071  -5.9995  -5.9659  -5.9606  -5.8112  -5.7728  -5.7558  -5.6490
    -5.4837  -5.4174  -5.4103  -5.3965  -5.2688  -5.1838  -5.0374  -5.0216
    -4.7593  -4.7385  -4.7204  -4.7175  -4.6298  -4.6185  -4.5167  -4.4775
    -4.4748  -4.4689  -4.1691  -2.8686   0.1677   0.1893   0.7102   0.7366
     0.7408   0.7520   0.7766   0.7826   0.7960   0.8182   0.8218   0.8228
     0.8256   0.8407   0.8514   0.8892   0.9151   0.9198   0.9376   0.9610
     1.0274   1.1782   1.2587   1.2775   1.2805   1.3161   1.3283   1.3297
     1.3335   1.3404   1.3432   1.3695   1.3989   1.4399   1.4416   1.4424
     1.4494   1.4525   1.4781   1.8873   2.1139   2.1522   2.3261   2.3418
     2.3450   2.3520   2.3608   2.3629   2.4323

     highest occupied, lowest unoccupied level (ev):    -3.5488   -2.8686

!    total energy              =   -1940.48605900 Ry
     Harris-Foulkes estimate   =   -1940.48605899 Ry
     estimated scf accuracy    <          9.1E-09 Ry

     total all-electron energy =     -7770.310536 Ry

     The total energy is the sum of the following terms:

     one-electron contribution =  -10659.90117083 Ry
     hartree contribution      =    5415.83139162 Ry
     xc contribution           =    -430.86561027 Ry
     ewald contribution        =    4377.89969976 Ry
     DFT-D3 Dispersion         =      -0.27041057 Ry
     one-center paw contrib.   =    -643.17995871 Ry

     total magnetization       =     1.00 Bohr mag/cell
     absolute magnetization    =     1.20 Bohr mag/cell

     convergence has been achieved in  13 iterations

     negative rho (up, down):  4.867E-01 5.529E-03

     Forces acting on atoms (cartesian axes, Ry/au):

     atom    1 type  1   force =     0.00003598   -0.00041493    0.00000000
     atom    2 type  1   force =     0.00003064   -0.00030920    0.00000000
     atom    3 type  1   force =    -0.00029419    0.00023010    0.00000000
     atom    4 type  1   force =    -0.00005378    0.00047924    0.00000000
     atom    5 type  1   force =     0.00042297   -0.00005769    0.00000000
     atom    6 type  1   force =     0.00029247    0.00023249    0.00000000
     atom    7 type  1   force =    -0.00004694    0.00002977    0.00000000
     atom    8 type  1   force =    -0.00015222   -0.00007758    0.00000000
     atom    9 type  1   force =     0.00001859   -0.00017255    0.00000000
     atom   10 type  1   force =    -0.00030885   -0.00003069    0.00000000
     atom   11 type  1   force =    -0.00068752    0.00010189    0.00000000
     atom   12 type  1   force =    -0.00015928    0.00037312    0.00000000
     atom   13 type  1   force =    -0.00004831    0.00002799    0.00000000
     atom   14 type  1   force =    -0.00005511   -0.00036808    0.00000000
     atom   15 type  1   force =    -0.00012318   -0.00002654    0.00000000
     atom   16 type  1   force =    -0.00000699    0.00021992    0.00000000
     atom   17 type  1   force =     0.00021312   -0.00004254    0.00000000
     atom   18 type  1   force =    -0.00017063    0.00004786    0.00000000
     atom   19 type  1   force =    -0.00053635    0.00030975    0.00000000
     atom   20 type  1   force =    -0.00040141   -0.00005039    0.00000000
     atom   21 type  1   force =     0.00026091   -0.00033630    0.00000000
     atom   22 type  1   force =     0.00029871   -0.00051602    0.00000000
     atom   23 type  1   force =     0.00001570    0.00022557    0.00000000
     atom   24 type  1   force =    -0.00009946    0.00027201    0.00000000
     atom   25 type  4   force =    -0.00007794    0.00004901    0.00000000
     atom   26 type  1   force =    -0.00011459    0.00011980    0.00000000
     atom   27 type  1   force =    -0.00042957    0.00054436    0.00000000
     atom   28 type  1   force =    -0.00043933   -0.00019393    0.00000000
     atom   29 type  1   force =     0.00027480   -0.00038039    0.00000000
     atom   30 type  1   force =     0.00020220   -0.00028266    0.00000000
     atom   31 type  1   force =    -0.00020714    0.00012453    0.00000000
     atom   32 type  1   force =    -0.00028498   -0.00004606    0.00000000
     atom   33 type  1   force =     0.00013264   -0.00017038    0.00000000
     atom   34 type  1   force =    -0.00012459    0.00028004    0.00000000
     atom   35 type  1   force =    -0.00034369    0.00013647    0.00000000
     atom   36 type  1   force =     0.00003690   -0.00021800    0.00000000
     atom   37 type  1   force =     0.00052137   -0.00030165    0.00000000
     atom   38 type  1   force =     0.00034530   -0.00003256    0.00000000
     atom   39 type  1   force =    -0.00019177   -0.00012592    0.00000000
     atom   40 type  1   force =    -0.00019716   -0.00010509    0.00000000
     atom   41 type  1   force =     0.00015539    0.00006535    0.00000000
     atom   42 type  1   force =     0.00027977    0.00012343    0.00000000
     atom   43 type  1   force =     0.00019600   -0.00011352    0.00000000
     atom   44 type  1   force =     0.00020698    0.00007586    0.00000000
     atom   45 type  1   force =     0.00046622   -0.00004754    0.00000000
     atom   46 type  1   force =     0.00059484   -0.00000271    0.00000000
     atom   47 type  1   force =    -0.00004300    0.00011620    0.00000000
     atom   48 type  1   force =    -0.00001496    0.00016626    0.00000000
     atom   49 type  1   force =     0.00037263    0.00017650    0.00000000
     atom   50 type  2   force =     0.00036936    0.00031431    0.00000000
     atom   51 type  2   force =     0.00034932   -0.00003632    0.00000000
     atom   52 type  2   force =    -0.00019539   -0.00008849    0.00000000
     atom   53 type  2   force =    -0.00019249    0.00001082    0.00000000
     atom   54 type  2   force =     0.00031759    0.00000039    0.00000000
     atom   55 type  2   force =    -0.00026324   -0.00033521    0.00000000
     atom   56 type  2   force =    -0.00035348    0.00020236    0.00000000
     atom   57 type  2   force =    -0.00014874    0.00052420    0.00000000
     atom   58 type  2   force =     0.00026023    0.00005630    0.00000000
     atom   59 type  2   force =     0.00003167   -0.00006898    0.00000000
     atom   60 type  2   force =    -0.00044550    0.00004673    0.00000000
[...]
     atom   84 type  2   force =    -0.00002160    0.00021959    0.00000000
     atom   85 type  2   force =    -0.00000709   -0.00024941    0.00000000
     atom   86 type  2   force =     0.00009656   -0.00005589    0.00000000
     atom   87 type  2   force =    -0.00027292    0.00005107    0.00000000
     atom   88 type  2   force =     0.00017382   -0.00000808    0.00000000
     atom   89 type  2   force =     0.00003284    0.00007293    0.00000000
     atom   90 type  2   force =     0.00009071   -0.00024835    0.00000000
     atom   91 type  2   force =     0.00021372   -0.00027538    0.00000000
     atom   92 type  2   force =     0.00013790   -0.00007884    0.00000000
     atom   93 type  2   force =     0.00021555    0.00013397    0.00000000
     atom   94 type  2   force =     0.00028805    0.00010436    0.00000000
     atom   95 type  2   force =     0.00001848   -0.00024907    0.00000000
     atom   96 type  2   force =    -0.00043191   -0.00020553    0.00000000
     atom   97 type  2   force =    -0.00052436   -0.00013111    0.00000000
     atom   98 type  2   force =    -0.00008564   -0.00047546    0.00000000

     Total force =     0.003272     Total SCF correction =     0.000096

     Computing stress (Cartesian axis) and pressure

     negative rho (up, down):  4.867E-01 5.529E-03
          total   stress  (Ry/bohr**3)                   (kbar)     P=   -0.15
   0.00000024  -0.00000008   0.00000000          0.04     -0.01      0.00
  -0.00000008   0.00000016   0.00000000         -0.01      0.02      0.00
   0.00000000   0.00000000  -0.00000340          0.00      0.00     -0.50

     Writing output data file C2Cn.save/

     General routines

     Parallel routines

   This run was terminated on:  23:55:21   7Jun2021

   JOB DONE.