     Program PWSCF v.6.8 starts on 12Oct2022 at 11:29:26

     R & G space division:  proc/nbgrp/npool/nimage =      32

     Waiting for input...
     Reading input from standard input

     Current dimensions of program PWSCF are:
     Max number of different atomic species (ntypx) = 10
     Max number of k-points (npk) =  40000
     Max angular momentum in pseudopotentials (lmaxx) =  4
     file N.pbe-n-kjpaw_psl.1.0.0.UPF: wavefunction(s)  2S renormalized

     Using Slab Decomposition

     bravais-lattice index     =            4
     lattice parameter (alat)  =       4.7243  a.u.
     unit-cell volume          =     547.8964 (a.u.)^3
     number of atoms/cell      =            2
     number of atomic types    =            2
     number of electrons       =         8.00
     number of Kohn-Sham states=            8
     kinetic-energy cutoff     =      60.0000  Ry
     charge density cutoff     =     240.0000  Ry
     scf convergence threshold =      1.0E-12
     mixing beta               =       0.7000
     number of iterations used =            8  plain     mixing
     energy convergence thresh.=      1.0E-04
     force convergence thresh. =      1.9E-10
     press convergence thresh. =      5.0E-01
     Exchange-correlation= SLA  PW   PBX  PBC
                           (   1   4   3   4   0   0   0)
     nstep                     =         2000

     celldm(1)=   4.724315  celldm(2)=   0.000000  celldm(3)=   6.000000
     celldm(4)=   0.000000  celldm(5)=   0.000000  celldm(6)=   0.000000

     crystal axes: (cart. coord. in units of alat)
               a(1) = (   1.000000   0.000000   0.000000 )
               a(2) = (  -0.500000   0.866025   0.000000 )
               a(3) = (   0.000000   0.000000   6.000000 )

     reciprocal axes: (cart. coord. in units 2 pi/alat)
               b(1) = (  1.000000  0.577350  0.000000 )
               b(2) = (  0.000000  1.154701  0.000000 )
               b(3) = (  0.000000  0.000000  0.166667 )

     PseudoPot. # 1 for B  read from file:
     ./pseudo/B.pbe-n-kjpaw_psl.1.0.0.UPF
     MD5 check sum: 8c825a5969375aca5c2c6ad5945b3059
     Pseudo is Projector augmented-wave + core cor, Zval =  3.0
     Generated using &quot;atomic&quot; code by A. Dal Corso  v.6.3
     Shape of augmentation charge: PSQ
     Using radial grid of 1059 points,  4 beta functions with:
                l(1) =   0
                l(2) =   0
                l(3) =   1
                l(4) =   1
     Q(r) pseudized with 0 coefficients

     PseudoPot. # 2 for N  read from file:
     ./pseudo/N.pbe-n-kjpaw_psl.1.0.0.UPF
     MD5 check sum: 14c48229446f9f2d411169a3abcbc3fa
     Pseudo is Projector augmented-wave + core cor, Zval =  5.0
     Generated using &quot;atomic&quot; code by A. Dal Corso  v.6.3
     Shape of augmentation charge: PSQ
     Using radial grid of 1085 points,  4 beta functions with:
                l(1) =   0
                l(2) =   0
                l(3) =   1
                l(4) =   1
     Q(r) pseudized with 0 coefficients

     atomic species   valence    mass     pseudopotential
        B              3.00    10.81100     B ( 1.00)
        N              5.00    14.00670     N ( 1.00)

     12 Sym. Ops. (no inversion) found

   Cartesian axes

     site n.     atom                  positions (alat units)
         1           B   tau(   1) = (  -0.0000005   0.5773506   3.0000000  )
         2           N   tau(   2) = (   0.5000005   0.2886748   3.0000000  )

     number of k points=    30
                       cart. coord. in units 2pi/alat
        k(    1) = (   0.0000000   0.0000000   0.0000000), wk =   0.0078125
        k(    2) = (   0.0000000   0.0721688   0.0000000), wk =   0.0468750
        k(    3) = (   0.0000000   0.1443376   0.0000000), wk =   0.0468750
        k(    4) = (   0.0000000   0.2165064   0.0000000), wk =   0.0468750
        k(    5) = (   0.0000000   0.2886751   0.0000000), wk =   0.0468750
        k(    6) = (   0.0000000   0.3608439   0.0000000), wk =   0.0468750
        k(    7) = (   0.0000000   0.4330127   0.0000000), wk =   0.0468750
        k(    8) = (   0.0000000   0.5051815   0.0000000), wk =   0.0468750
        k(    9) = (   0.0000000  -0.5773503   0.0000000), wk =   0.0234375
        k(   10) = (   0.0625000   0.1082532   0.0000000), wk =   0.0468750
        k(   11) = (   0.0625000   0.1804220   0.0000000), wk =   0.0937500
        k(   12) = (   0.0625000   0.2525907   0.0000000), wk =   0.0937500
        k(   13) = (   0.0625000   0.3247595   0.0000000), wk =   0.0937500
        k(   14) = (   0.0625000   0.3969283   0.0000000), wk =   0.0937500
        k(   15) = (   0.0625000   0.4690971   0.0000000), wk =   0.0937500
        k(   16) = (   0.0625000   0.5412659   0.0000000), wk =   0.0937500
        k(   17) = (   0.1250000   0.2165064   0.0000000), wk =   0.0468750
        k(   18) = (   0.1250000   0.2886751   0.0000000), wk =   0.0937500
        k(   19) = (   0.1250000   0.3608439   0.0000000), wk =   0.0937500
        k(   20) = (   0.1250000   0.4330127   0.0000000), wk =   0.0937500
        k(   21) = (   0.1250000   0.5051815   0.0000000), wk =   0.0937500
        k(   22) = (   0.1250000   0.5773503   0.0000000), wk =   0.0468750
        k(   23) = (   0.1875000   0.3247595   0.0000000), wk =   0.0468750
        k(   24) = (   0.1875000   0.3969283   0.0000000), wk =   0.0937500
        k(   25) = (   0.1875000   0.4690971   0.0000000), wk =   0.0937500
        k(   26) = (   0.1875000   0.5412659   0.0000000), wk =   0.0937500
        k(   27) = (   0.2500000   0.4330127   0.0000000), wk =   0.0468750
        k(   28) = (   0.2500000   0.5051815   0.0000000), wk =   0.0937500
        k(   29) = (   0.2500000   0.5773503   0.0000000), wk =   0.0468750
        k(   30) = (   0.3125000   0.5412659   0.0000000), wk =   0.0468750

     Check: negative core charge=   -0.000006

     Initial potential from superposition of free atoms

     starting charge    7.99971, renormalised to    8.00000

     negative rho (up, down):  3.175E-04 0.000E+00
     Starting wfcs are    8 randomized atomic wfcs
     Checking if some PAW data can be deallocated...

     Self-consistent Calculation

     iteration #  1     ecut=    60.00 Ry     beta= 0.70
     CG style diagonalization
     ethr =  1.00E-02,  avg # of iterations =  4.2

     negative rho (up, down):  4.481E-04 0.000E+00

     total energy              =     -39.71586698 Ry
     estimated scf accuracy    <       0.41978964 Ry

[...]

     End of self-consistent calculation

          k = 0.0000 0.0000 0.0000 (  4287 PWs)   bands (ev):

   -23.5042 -11.0777  -7.1248  -7.1247  -1.1435  -0.2226   1.2124   2.2166

[...]

     highest occupied, lowest unoccupied level (ev):    -5.8669   -1.1435

!    total energy              =     -39.86446552 Ry

     total all-electron energy =      -159.402611 Ry
     estimated scf accuracy    <          5.9E-14 Ry

     The total energy is the sum of the following terms:
     one-electron contribution =    -252.86433743 Ry
     hartree contribution      =     127.69719886 Ry
     xc contribution           =      -8.82877758 Ry
     ewald contribution        =     107.31206485 Ry
     one-center paw contrib.   =     -13.18061423 Ry

     convergence has been achieved in  14 iterations

[...]

     Forces acting on atoms (cartesian axes, Ry/au):

     atom    1 type  1   force =     0.00000000    0.00000000    0.00000000
     atom    2 type  2   force =     0.00000000    0.00000000    0.00000000

     Total force =     0.000000     Total SCF correction =     0.000000

     Computing stress (Cartesian axis) and pressure

     negative rho (up, down):  6.209E-04 0.000E+00
          total   stress  (Ry/bohr**3)                   (kbar)     P=        9.58
   0.00009976  -0.00000000   0.00000000           14.68       -0.00        0.00
  -0.00000000   0.00009976   0.00000000           -0.00       14.68        0.00
   0.00000000   0.00000000  -0.00000412            0.00        0.00       -0.61

     BFGS Geometry Optimization
     Energy error            =      0.0E+00 Ry
     Gradient error          =      0.0E+00 Ry/Bohr
     Cell gradient error     =      1.5E+01 kbar

     number of scf cycles    =   1
     number of bfgs steps    =   0

     enthalpy           new  =     -39.8644655214 Ry

     new trust radius        =       0.0116754063 bohr
     new conv_thr            =            1.0E-12 Ry

     new unit-cell volume =    550.63265 a.u.^3 (    81.59534 Ang^3 )
     density =      0.50506 g/cm^3

CELL_PARAMETERS (alat=  4.72431497)
   1.002493979  -0.000000000   0.000000000
  -0.501246990   0.868185253   0.000000000
   0.000000000   0.000000000   6.000000000

ATOMIC_POSITIONS (crystal)
B             0.3333330000        0.6666670000        0.5000000000
N             0.6666670000        0.3333330000        0.5000000000

     Writing output data file ./TMP_DIR/hBN.save/
     NEW-OLD atomic charge density approx. for the potential

[...]

     negative rho (up, down):  6.268E-04 0.000E+00
     extrapolated charge    8.03975, renormalised to    8.00000

[...]

     iteration #  1     ecut=    60.00 Ry     beta= 0.70
     CG style diagonalization
     c_bands:  1 eigenvalues not converged
     ethr =  1.00E-06,  avg # of iterations =  6.2

[...]

          k =-0.0000-0.5759 0.0000 (  4320 PWs)   bands (ev):

[...]

     Energy error            =      2.2E-04 Ry
     Gradient error          =      5.6E-22 Ry/Bohr
     Cell gradient error     =      8.5E+00 kbar

[...]

     enthalpy           old  =     -39.8644655214 Ry
     enthalpy           new  =     -39.8646813194 Ry

     CASE: enthalpy          _new < enthalpy          _old

[...]

     number of scf cycles    =   3
     number of bfgs steps    =   2

     enthalpy           old  =     -39.8646813194 Ry
     enthalpy           new  =     -39.8647888369 Ry

     CASE: enthalpy          _new < enthalpy          _old

     new trust radius        =       0.0038377995 bohr
     new conv_thr            =            1.0E-14 Ry

     new unit-cell volume =    554.55384 a.u.^3 (    82.17640 Ang^3 )
     density =      0.50149 g/cm^3

[...]

ATOMIC_POSITIONS (crystal)
B             0.3333330000        0.6666670000        0.5000000000
N             0.6666670000        0.3333330000        0.5000000000

     Writing output data file ./TMP_DIR/hBN.save/
     NEW-OLD atomic charge density approx. for the potential

[...]

     negative rho (up, down):  6.551E-04 0.000E+00
     extrapolated charge    8.01303, renormalised to    8.00000

[...]

     Energy error            =      6.1E-06 Ry
     Gradient error          =      5.6E-22 Ry/Bohr
     Cell gradient error     =      2.6E-02 kbar

     bfgs converged in   4 scf cycles and   3 bfgs steps
     (criteria: energy <  1.0E-04 Ry, force <  1.9E-10Ry/Bohr, cell <  5.0E-01kbar)

     End of BFGS Geometry Optimization

     Final enthalpy           =     -39.8647949682 Ry

     File ./TMP_DIR/hBN.bfgs deleted, as requested
Begin final coordinates
     new unit-cell volume =    554.55384 a.u.^3 (    82.17640 Ang^3 )
     density =      0.50149 g/cm^3

CELL_PARAMETERS (alat=  4.72431497)
   1.006057147  -0.000000000   0.000000000
  -0.503028573   0.871271047   0.000000000
   0.000000000   0.000000000   6.000000000

ATOMIC_POSITIONS (crystal)
B             0.3333330000        0.6666670000        0.5000000000
N             0.6666670000        0.3333330000        0.5000000000
End final coordinates

     Writing output data file ./TMP_DIR/hBN.save/

     Final scf calculation at the relaxed structure.
     The G-vectors are recalculated for the final unit cell
     Results may differ from those at the preceding step.

     Using Slab Decomposition

     bravais-lattice index     =            4
     lattice parameter (alat)  =       4.7243  a.u.
     unit-cell volume          =     554.5538 (a.u.)^3
     number of atoms/cell      =            2
     number of atomic types    =            2
     number of electrons       =         8.00
     number of Kohn-Sham states=            8
     kinetic-energy cutoff     =      60.0000  Ry
     charge density cutoff     =     240.0000  Ry
     scf convergence threshold =      1.0E-14
     mixing beta               =       0.7000
     number of iterations used =            8  plain     mixing
     press convergence thresh. =      5.0E-01
     Exchange-correlation= SLA  PW   PBX  PBC
                           (   1   4   3   4   0   0   0)

     celldm(1)=   4.724315  celldm(2)=   0.000000  celldm(3)=   6.000000
     celldm(4)=   0.000000  celldm(5)=   0.000000  celldm(6)=   0.000000

     crystal axes: (cart. coord. in units of alat)
               a(1) = (   1.006057  -0.000000   0.000000 )
               a(2) = (  -0.503029   0.871271   0.000000 )
               a(3) = (   0.000000   0.000000   6.000000 )

     reciprocal axes: (cart. coord. in units 2 pi/alat)
               b(1) = (  0.993979  0.573874  0.000000 )
               b(2) = (  0.000000  1.147748  0.000000 )
               b(3) = (  0.000000  0.000000  0.166667 )

     PseudoPot. # 1 for B  read from file:
     ./pseudo/B.pbe-n-kjpaw_psl.1.0.0.UPF
     MD5 check sum: 8c825a5969375aca5c2c6ad5945b3059
     Pseudo is Projector augmented-wave + core cor, Zval =  3.0
     Generated using &quot;atomic&quot; code by A. Dal Corso  v.6.3
     Shape of augmentation charge: PSQ
     Using radial grid of 1059 points,  4 beta functions with:
                l(1) =   0
                l(2) =   0
                l(3) =   1
                l(4) =   1
     Q(r) pseudized with 0 coefficients

     PseudoPot. # 2 for N  read from file:
     ./pseudo/N.pbe-n-kjpaw_psl.1.0.0.UPF
     MD5 check sum: 14c48229446f9f2d411169a3abcbc3fa
     Pseudo is Projector augmented-wave + core cor, Zval =  5.0
     Generated using &quot;atomic&quot; code by A. Dal Corso  v.6.3
     Shape of augmentation charge: PSQ
     Using radial grid of 1085 points,  4 beta functions with:
                l(1) =   0
                l(2) =   0
                l(3) =   1
                l(4) =   1
     Q(r) pseudized with 0 coefficients

     atomic species   valence    mass     pseudopotential
        B              3.00    10.81100     B ( 1.00)
        N              5.00    14.00670     N ( 1.00)

     12 Sym. Ops. (no inversion) found

   Cartesian axes

     site n.     atom                  positions (alat units)
         1           B   tau(   1) = (  -0.0000005   0.5808477   3.0000000  )
         2           N   tau(   2) = (   0.5030291   0.2904234   3.0000000  )

     number of k points=    30
                       cart. coord. in units 2pi/alat
        k(    1) = (   0.0000000   0.0000000   0.0000000), wk =   0.0078125
        k(    2) = (   0.0000000   0.0717343   0.0000000), wk =   0.0468750
        k(    3) = (   0.0000000   0.1434686   0.0000000), wk =   0.0468750
        k(    4) = (   0.0000000   0.2152028   0.0000000), wk =   0.0468750
        k(    5) = (   0.0000000   0.2869371   0.0000000), wk =   0.0468750
        k(    6) = (   0.0000000   0.3586714   0.0000000), wk =   0.0468750
        k(    7) = (   0.0000000   0.4304057   0.0000000), wk =   0.0468750
        k(    8) = (   0.0000000   0.5021400   0.0000000), wk =   0.0468750
        k(    9) = (  -0.0000000  -0.5738742   0.0000000), wk =   0.0234375
        k(   10) = (   0.0621237   0.1076014   0.0000000), wk =   0.0468750
        k(   11) = (   0.0621237   0.1793357   0.0000000), wk =   0.0937500
        k(   12) = (   0.0621237   0.2510700   0.0000000), wk =   0.0937500
        k(   13) = (   0.0621237   0.3228043   0.0000000), wk =   0.0937500
        k(   14) = (   0.0621237   0.3945385   0.0000000), wk =   0.0937500
        k(   15) = (   0.0621237   0.4662728   0.0000000), wk =   0.0937500
        k(   16) = (   0.0621237   0.5380071   0.0000000), wk =   0.0937500
        k(   17) = (   0.1242474   0.2152028   0.0000000), wk =   0.0468750
        k(   18) = (   0.1242474   0.2869371   0.0000000), wk =   0.0937500
        k(   19) = (   0.1242474   0.3586714   0.0000000), wk =   0.0937500
        k(   20) = (   0.1242474   0.4304057   0.0000000), wk =   0.0937500
        k(   21) = (   0.1242474   0.5021400   0.0000000), wk =   0.0937500
        k(   22) = (   0.1242474   0.5738742   0.0000000), wk =   0.0468750
        k(   23) = (   0.1863711   0.3228043   0.0000000), wk =   0.0468750
        k(   24) = (   0.1863711   0.3945385   0.0000000), wk =   0.0937500
        k(   25) = (   0.1863711   0.4662728   0.0000000), wk =   0.0937500
        k(   26) = (   0.1863711   0.5380071   0.0000000), wk =   0.0937500
        k(   27) = (   0.2484948   0.4304057   0.0000000), wk =   0.0468750
        k(   28) = (   0.2484948   0.5021400   0.0000000), wk =   0.0937500
        k(   29) = (   0.2484948   0.5738742   0.0000000), wk =   0.0468750
        k(   30) = (   0.3106185   0.5380071   0.0000000), wk =   0.0468750

     Check: negative core charge=   -0.000006

     Initial potential from superposition of free atoms

     starting charge    7.99971, renormalised to    8.00000

     negative rho (up, down):  3.243E-04 0.000E+00
     Starting wfcs are    8 randomized atomic wfcs
     Checking if some PAW data can be deallocated...

     Self-consistent Calculation

     iteration #  1     ecut=    60.00 Ry     beta= 0.70
     CG style diagonalization
     c_bands:  1 eigenvalues not converged
     c_bands:  3 eigenvalues not converged
     c_bands:  5 eigenvalues not converged
     c_bands:  1 eigenvalues not converged
     c_bands:  1 eigenvalues not converged
     c_bands:  1 eigenvalues not converged
     c_bands:  1 eigenvalues not converged
     c_bands:  1 eigenvalues not converged
     c_bands:  1 eigenvalues not converged
     c_bands:  4 eigenvalues not converged
     c_bands:  5 eigenvalues not converged
     c_bands:  1 eigenvalues not converged
     c_bands:  1 eigenvalues not converged
     c_bands:  1 eigenvalues not converged
     c_bands:  1 eigenvalues not converged
     c_bands:  1 eigenvalues not converged
     c_bands:  2 eigenvalues not converged
     c_bands:  1 eigenvalues not converged
     c_bands:  1 eigenvalues not converged
     c_bands:  1 eigenvalues not converged
     c_bands:  1 eigenvalues not converged
     c_bands:  1 eigenvalues not converged
     c_bands:  1 eigenvalues not converged
     c_bands:  1 eigenvalues not converged
     c_bands:  1 eigenvalues not converged
     c_bands:  1 eigenvalues not converged
     c_bands:  1 eigenvalues not converged
     c_bands:  1 eigenvalues not converged
     c_bands:  1 eigenvalues not converged
     c_bands:  1 eigenvalues not converged
     ethr =  1.00E-06,  avg # of iterations = 12.8

[...]

     total energy              =     -39.86481775 Ry
     estimated scf accuracy    <          1.9E-13 Ry

     iteration # 18     ecut=    60.00 Ry     beta= 0.70
     CG style diagonalization
     ethr =  1.00E-13,  avg # of iterations =  3.0

[...]

     End of self-consistent calculation

[...]

          k =-0.0000-0.5739 0.0000 (  4340 PWs)   bands (ev):

[...]

          k = 0.3106 0.5380 0.0000 (  4348 PWs)   bands (ev):

   -19.8425 -13.7300 -12.8204  -5.8901  -1.1038   6.5849   7.1743   8.4489

     highest occupied, lowest unoccupied level (ev):    -5.8901   -1.1503

!    total energy              =     -39.86481775 Ry

     total all-electron energy =      -159.402963 Ry
     estimated scf accuracy    <          4.2E-15 Ry

     The total energy is the sum of the following terms:
     one-electron contribution =    -249.83855420 Ry
     hartree contribution      =     126.17363071 Ry
     xc contribution           =      -8.80329557 Ry
     ewald contribution        =     105.78369746 Ry
     one-center paw contrib.   =     -13.18029615 Ry

     convergence has been achieved in  18 iterations

     negative rho (up, down):  6.310E-04 0.000E+00

     Forces acting on atoms (cartesian axes, Ry/au):

     atom    1 type  1   force =    -0.00000000   -0.00000000    0.00000000
     atom    2 type  2   force =    -0.00000000   -0.00000000    0.00000000

     Total force =     0.000000     Total SCF correction =     0.000000

     Computing stress (Cartesian axis) and pressure

     negative rho (up, down):  6.310E-04 0.000E+00
          total   stress  (Ry/bohr**3)                   (kbar)     P=       -0.19
  -0.00000000  -0.00000000   0.00000000           -0.00       -0.00        0.00
   0.00000000  -0.00000000   0.00000000            0.00       -0.00        0.00
  -0.00000000   0.00000000  -0.00000397           -0.00        0.00       -0.58

     Writing output data file ./TMP_DIR/hBN.save/

     General routines

     Parallel routines

   This run was terminated on:  11:30: 9  12Oct2022

   JOB DONE.