     Program PWSCF v.6.8 starts on 15Dec2022 at 17:59:34

     R & G space division:  proc/nbgrp/npool/nimage =      32

     Waiting for input...
     Reading input from standard input

     Current dimensions of program PWSCF are:
     Max number of different atomic species (ntypx) = 10
     Max number of k-points (npk) =  40000
     Max angular momentum in pseudopotentials (lmaxx) =  4
     file N.pbe-n-kjpaw_psl.1.0.0.UPF: wavefunction(s)  2S renormalized

     Using Slab Decomposition

     bravais-lattice index     =            4
     lattice parameter (alat)  =       4.7540  a.u.
     unit-cell volume          =     554.8132 (a.u.)^3
     number of atoms/cell      =            2
     number of atomic types    =            2
     number of electrons       =         8.00
     number of Kohn-Sham states=            8
     kinetic-energy cutoff     =      60.0000  Ry
     charge density cutoff     =     500.0000  Ry
     scf convergence threshold =      1.0E-12
     mixing beta               =       0.7000
     number of iterations used =            8  plain     mixing
     energy convergence thresh.=      1.0E-04
     force convergence thresh. =      1.9E-10
     press convergence thresh. =      5.0E-03
     Exchange-correlation= SLA  PW   PBX  PBC
                           (   1   4   3   4   0   0   0)
     nstep                     =         2000

     celldm(1)=   4.754042  celldm(2)=   0.000000  celldm(3)=   5.962482
     celldm(4)=   0.000000  celldm(5)=   0.000000  celldm(6)=   0.000000

     crystal axes: (cart. coord. in units of alat)
               a(1) = (   1.000000   0.000000   0.000000 )
               a(2) = (  -0.500000   0.866025   0.000000 )
               a(3) = (   0.000000   0.000000   5.962482 )

     reciprocal axes: (cart. coord. in units 2 pi/alat)
               b(1) = (  1.000000  0.577350  0.000000 )
               b(2) = (  0.000000  1.154701  0.000000 )
               b(3) = (  0.000000  0.000000  0.167715 )

     PseudoPot. # 1 for B  read from file:
     ./pseudo/B.pbe-n-kjpaw_psl.1.0.0.UPF
     MD5 check sum: 8c825a5969375aca5c2c6ad5945b3059
     Pseudo is Projector augmented-wave + core cor, Zval =  3.0
     Generated using &quot;atomic&quot; code by A. Dal Corso  v.6.3
     Shape of augmentation charge: PSQ
     Using radial grid of 1059 points,  4 beta functions with:
                l(1) =   0
                l(2) =   0
                l(3) =   1
                l(4) =   1
     Q(r) pseudized with 0 coefficients

     PseudoPot. # 2 for N  read from file:
     ./pseudo/N.pbe-n-kjpaw_psl.1.0.0.UPF
     MD5 check sum: 14c48229446f9f2d411169a3abcbc3fa
     Pseudo is Projector augmented-wave + core cor, Zval =  5.0
     Generated using &quot;atomic&quot; code by A. Dal Corso  v.6.3
     Shape of augmentation charge: PSQ
     Using radial grid of 1085 points,  4 beta functions with:
                l(1) =   0
                l(2) =   0
                l(3) =   1
                l(4) =   1
     Q(r) pseudized with 0 coefficients

     atomic species   valence    mass     pseudopotential
        B              3.00    10.81100     B ( 1.00)
        N              5.00    14.00670     N ( 1.00)

     12 Sym. Ops. (no inversion) found

   Cartesian axes

     site n.     atom                  positions (alat units)
         1           B   tau(   1) = (  -0.0000005   0.5773506   2.9812408  )
         2           N   tau(   2) = (   0.5000005   0.2886748   2.9812408  )

     number of k points=     7  Methfessel-Paxton smearing, width (Ry)=  0.0100
                       cart. coord. in units 2pi/alat
        k(    1) = (   0.0000000   0.0000000   0.0000000), wk =   0.0555556
        k(    2) = (   0.0000000   0.1924501   0.0000000), wk =   0.3333333
        k(    3) = (   0.0000000   0.3849002   0.0000000), wk =   0.3333333
        k(    4) = (   0.0000000  -0.5773503   0.0000000), wk =   0.1666667
        k(    5) = (   0.1666667   0.2886751   0.0000000), wk =   0.3333333
        k(    6) = (   0.1666667   0.4811252   0.0000000), wk =   0.6666667
        k(    7) = (   0.3333333   0.5773503   0.0000000), wk =   0.1111111

     Initial potential from superposition of free atoms

     starting charge    7.99971, renormalised to    8.00000

     negative rho (up, down):  5.478E-05 0.000E+00
     Starting wfcs are    8 randomized atomic wfcs
     Checking if some PAW data can be deallocated...

     Self-consistent Calculation

     iteration #  1     ecut=    60.00 Ry     beta= 0.70
     CG style diagonalization
     ethr =  1.00E-02,  avg # of iterations =  3.8

     negative rho (up, down):  4.858E-05 0.000E+00

     total energy              =     -39.71845299 Ry
     estimated scf accuracy    <       0.40989385 Ry

[...]

     iteration #  6     ecut=    60.00 Ry     beta= 0.70
     CG style diagonalization
     c_bands:  1 eigenvalues not converged
     ethr =  3.59E-06,  avg # of iterations =  3.6

[...]

     End of self-consistent calculation

          k = 0.0000 0.0000 0.0000 (  4335 PWs)   bands (ev):

   -23.4183 -11.0067  -7.1723  -7.1722  -1.1157  -0.1205   1.4307   2.4010

[...]

     the Fermi energy is    -2.9798 ev

!    total energy              =     -39.86487220 Ry

     total all-electron energy =      -159.403018 Ry
     estimated scf accuracy    <          8.0E-13 Ry
     smearing contrib. (-TS)   =       0.00000000 Ry
     internal energy E=F+TS    =     -39.86487220 Ry

     The total energy is F=E-TS. E is the sum of the following terms:
     one-electron contribution =    -249.72213718 Ry
     hartree contribution      =     126.11492271 Ry
     xc contribution           =      -8.80236696 Ry
     ewald contribution        =     105.72492270 Ry
     one-center paw contrib.   =     -13.18021347 Ry

     convergence has been achieved in  13 iterations

[...]

     Forces acting on atoms (cartesian axes, Ry/au):

     atom    1 type  1   force =     0.00000000    0.00000000    0.00000000
     atom    2 type  2   force =     0.00000000    0.00000000    0.00000000

     Total force =     0.000000     Total SCF correction =     0.000000

     Computing stress (Cartesian axis) and pressure

     negative rho (up, down):  1.262E-04 0.000E+00
          total   stress  (Ry/bohr**3)                   (kbar)     P=       -0.74
  -0.00000570   0.00000000   0.00000000           -0.84        0.00        0.00
   0.00000000  -0.00000570   0.00000000            0.00       -0.84        0.00
   0.00000000   0.00000000  -0.00000374            0.00        0.00       -0.55

     BFGS Geometry Optimization
     Energy error            =      0.0E+00 Ry
     Gradient error          =      0.0E+00 Ry/Bohr
     Cell gradient error     =      8.4E-01 kbar

     number of scf cycles    =   1
     number of bfgs steps    =   0

     enthalpy           new  =     -39.8648722044 Ry

     new trust radius        =       0.0006711297 bohr
     new conv_thr            =            1.0E-12 Ry

     new unit-cell volume =    554.65515 a.u.^3 (    82.19141 Ang^3 )
     density =      0.50140 g/cm^3

CELL_PARAMETERS (alat=  4.75404225)
   0.999857537  -0.000000000   0.000000000
  -0.499928768   0.865902027   0.000000000
   0.000000000   0.000000000   5.962481680

ATOMIC_POSITIONS (crystal)
B             0.3333330000        0.6666670000        0.5000000000
N             0.6666670000        0.3333330000        0.5000000000

     Writing output data file ./TMP_DIR/hBN.save/
     NEW-OLD atomic charge density approx. for the potential

     negative rho (up, down):  1.263E-04 0.000E+00
     extrapolated charge    7.99772, renormalised to    8.00000

[...]

     Threshold (ethr) on eigenvalues was too large:
     Diagonalizing with lowered threshold

     CG style diagonalization
     ethr =  2.49E-08,  avg # of iterations =  2.2

[...]

          k =-0.0000-0.5774 0.0000 (  4344 PWs)   bands (ev):

[...]

     Energy error            =      7.1E-07 Ry
     Gradient error          =      5.6E-22 Ry/Bohr
     Cell gradient error     =      5.0E-01 kbar

[...]

     enthalpy           old  =     -39.8648722044 Ry
     enthalpy           new  =     -39.8648729166 Ry

     CASE: enthalpy          _new < enthalpy          _old

[...]

     number of scf cycles    =   3
     number of bfgs steps    =   2

     enthalpy           old  =     -39.8648729166 Ry
     enthalpy           new  =     -39.8648732803 Ry

     CASE: enthalpy          _new < enthalpy          _old

     new trust radius        =       0.0002615124 bohr
     new conv_thr            =            1.0E-14 Ry

     new unit-cell volume =    554.41972 a.u.^3 (    82.15653 Ang^3 )
     density =      0.50161 g/cm^3

[...]

ATOMIC_POSITIONS (crystal)
B             0.3333330000        0.6666670000        0.5000000000
N             0.6666670000        0.3333330000        0.5000000000

     Writing output data file ./TMP_DIR/hBN.save/
     NEW-OLD atomic charge density approx. for the potential

     negative rho (up, down):  1.265E-04 0.000E+00
     extrapolated charge    7.99911, renormalised to    8.00000

[...]

     Threshold (ethr) on eigenvalues was too large:
     Diagonalizing with lowered threshold

     CG style diagonalization
     ethr =  3.56E-09,  avg # of iterations =  2.3

[...]

     Energy error            =      2.4E-08 Ry
     Gradient error          =      5.6E-22 Ry/Bohr
     Cell gradient error     =      1.8E-04 kbar

     bfgs converged in   4 scf cycles and   3 bfgs steps
     (criteria: energy <  1.0E-04 Ry, force <  1.9E-10Ry/Bohr, cell <  5.0E-03kbar)

     End of BFGS Geometry Optimization

     Final enthalpy           =     -39.8648733043 Ry

     File ./TMP_DIR/hBN.bfgs deleted, as requested
Begin final coordinates
     new unit-cell volume =    554.41972 a.u.^3 (    82.15653 Ang^3 )
     density =      0.50161 g/cm^3

CELL_PARAMETERS (alat=  4.75404225)
   0.999645315   0.000000000   0.000000000
  -0.499822657   0.865718237   0.000000000
   0.000000000   0.000000000   5.962481680

ATOMIC_POSITIONS (crystal)
B             0.3333330000        0.6666670000        0.5000000000
N             0.6666670000        0.3333330000        0.5000000000
End final coordinates

     Writing output data file ./TMP_DIR/hBN.save/

     Final scf calculation at the relaxed structure.
     The G-vectors are recalculated for the final unit cell
     Results may differ from those at the preceding step.

     Using Slab Decomposition

     bravais-lattice index     =            4
     lattice parameter (alat)  =       4.7540  a.u.
     unit-cell volume          =     554.4197 (a.u.)^3
     number of atoms/cell      =            2
     number of atomic types    =            2
     number of electrons       =         8.00
     number of Kohn-Sham states=            8
     kinetic-energy cutoff     =      60.0000  Ry
     charge density cutoff     =     500.0000  Ry
     scf convergence threshold =      1.0E-14
     mixing beta               =       0.7000
     number of iterations used =            8  plain     mixing
     press convergence thresh. =      5.0E-03
     Exchange-correlation= SLA  PW   PBX  PBC
                           (   1   4   3   4   0   0   0)

     celldm(1)=   4.754042  celldm(2)=   0.000000  celldm(3)=   5.962482
     celldm(4)=   0.000000  celldm(5)=   0.000000  celldm(6)=   0.000000

     crystal axes: (cart. coord. in units of alat)
               a(1) = (   0.999645   0.000000   0.000000 )
               a(2) = (  -0.499823   0.865718   0.000000 )
               a(3) = (   0.000000   0.000000   5.962482 )

     reciprocal axes: (cart. coord. in units 2 pi/alat)
               b(1) = (  1.000355  0.577555  0.000000 )
               b(2) = ( -0.000000  1.155110  0.000000 )
               b(3) = (  0.000000  0.000000  0.167715 )

     PseudoPot. # 1 for B  read from file:
     ./pseudo/B.pbe-n-kjpaw_psl.1.0.0.UPF
     MD5 check sum: 8c825a5969375aca5c2c6ad5945b3059
     Pseudo is Projector augmented-wave + core cor, Zval =  3.0
     Generated using &quot;atomic&quot; code by A. Dal Corso  v.6.3
     Shape of augmentation charge: PSQ
     Using radial grid of 1059 points,  4 beta functions with:
                l(1) =   0
                l(2) =   0
                l(3) =   1
                l(4) =   1
     Q(r) pseudized with 0 coefficients

     PseudoPot. # 2 for N  read from file:
     ./pseudo/N.pbe-n-kjpaw_psl.1.0.0.UPF
     MD5 check sum: 14c48229446f9f2d411169a3abcbc3fa
     Pseudo is Projector augmented-wave + core cor, Zval =  5.0
     Generated using &quot;atomic&quot; code by A. Dal Corso  v.6.3
     Shape of augmentation charge: PSQ
     Using radial grid of 1085 points,  4 beta functions with:
                l(1) =   0
                l(2) =   0
                l(3) =   1
                l(4) =   1
     Q(r) pseudized with 0 coefficients

     atomic species   valence    mass     pseudopotential
        B              3.00    10.81100     B ( 1.00)
        N              5.00    14.00670     N ( 1.00)

     12 Sym. Ops. (no inversion) found

   Cartesian axes

     site n.     atom                  positions (alat units)
         1           B   tau(   1) = (  -0.0000005   0.5771458   2.9812408  )
         2           N   tau(   2) = (   0.4998232   0.2885725   2.9812408  )

     number of k points=     7  Methfessel-Paxton smearing, width (Ry)=  0.0100
                       cart. coord. in units 2pi/alat
        k(    1) = (   0.0000000   0.0000000   0.0000000), wk =   0.0555556
        k(    2) = (  -0.0000000   0.1925184   0.0000000), wk =   0.3333333
        k(    3) = (  -0.0000000   0.3850367   0.0000000), wk =   0.3333333
        k(    4) = (   0.0000000  -0.5775551   0.0000000), wk =   0.1666667
        k(    5) = (   0.1667258   0.2887776   0.0000000), wk =   0.3333333
        k(    6) = (   0.1667258   0.4812959   0.0000000), wk =   0.6666667
        k(    7) = (   0.3334516   0.5775551   0.0000000), wk =   0.1111111

     Initial potential from superposition of free atoms

     starting charge    7.99971, renormalised to    8.00000

     negative rho (up, down):  5.459E-05 0.000E+00
     Starting wfcs are    8 randomized atomic wfcs
     Checking if some PAW data can be deallocated...

     Self-consistent Calculation

     iteration #  1     ecut=    60.00 Ry     beta= 0.70
     CG style diagonalization
     c_bands:  5 eigenvalues not converged
     c_bands:  1 eigenvalues not converged
     c_bands:  1 eigenvalues not converged
     c_bands:  1 eigenvalues not converged
     c_bands:  1 eigenvalues not converged
     c_bands:  1 eigenvalues not converged
     ethr =  1.00E-06,  avg # of iterations = 12.3

[...]

     total energy              =     -39.86487249 Ry
     estimated scf accuracy    <          8.8E-14 Ry

     iteration # 26     ecut=    60.00 Ry     beta= 0.70
     CG style diagonalization
     ethr =  1.00E-13,  avg # of iterations =  3.0

[...]

     End of self-consistent calculation

[...]

          k =-0.0000 0.3850 0.0000 (  4368 PWs)   bands (ev):

[...]

          k = 0.3335 0.5776 0.0000 (  4380 PWs)   bands (ev):

   -19.8021 -13.6703 -12.9767  -5.8200  -1.1570   6.5432   7.4464   8.7468

     the Fermi energy is    -2.9768 ev

!    total energy              =     -39.86487249 Ry

     total all-electron energy =      -159.403018 Ry
     estimated scf accuracy    <          3.5E-15 Ry
     smearing contrib. (-TS)   =       0.00000000 Ry
     internal energy E=F+TS    =     -39.86487249 Ry

     The total energy is F=E-TS. E is the sum of the following terms:
     one-electron contribution =    -249.89873936 Ry
     hartree contribution      =     126.20384458 Ry
     xc contribution           =      -8.80385718 Ry
     ewald contribution        =     105.81411054 Ry
     one-center paw contrib.   =     -13.18023108 Ry

     convergence has been achieved in  26 iterations

     negative rho (up, down):  1.264E-04 0.000E+00

     Forces acting on atoms (cartesian axes, Ry/au):

     atom    1 type  1   force =     0.00000000    0.00000000    0.00000000
     atom    2 type  2   force =     0.00000000    0.00000000    0.00000000

     Total force =     0.000000     Total SCF correction =     0.000000

     Computing stress (Cartesian axis) and pressure

     negative rho (up, down):  1.264E-04 0.000E+00
          total   stress  (Ry/bohr**3)                   (kbar)     P=       -0.18
   0.00000000   0.00000000   0.00000000            0.00        0.00        0.00
   0.00000000   0.00000000   0.00000000            0.00        0.00        0.00
  -0.00000000   0.00000000  -0.00000374           -0.00        0.00       -0.55

     Writing output data file ./TMP_DIR/hBN.save/

     General routines

     Parallel routines

   This run was terminated on:  17:59:55  15Dec2022

   JOB DONE.