     Program PWSCF v.6.8 starts on 26Nov2022 at 11:48:26

     R & G space division:  proc/nbgrp/npool/nimage =     128

     Waiting for input...
     Reading input from standard input

     Current dimensions of program PWSCF are:
     Max number of different atomic species (ntypx) = 10
     Max number of k-points (npk) =  40000
     Max angular momentum in pseudopotentials (lmaxx) =  4
     file N.pbe-n-kjpaw_psl.1.0.0.UPF: wavefunction(s)  2S renormalized
     file C.pbe-n-kjpaw_psl.1.0.0.UPF: wavefunction(s)  2S 2P renormalized
     Message from routine setup:
     using ibrav=0 with symmetry is DISCOURAGED, use correct ibrav instead

     Using Slab Decomposition

     bravais-lattice index     =            0
     lattice parameter (alat)  =      23.7646  a.u.
     unit-cell volume          =   13934.9312 (a.u.)^3
     number of atoms/cell      =           50
     number of atomic types    =            3
     number of electrons       =       199.00
     number of Kohn-Sham states=          120
     kinetic-energy cutoff     =      60.0000  Ry
     charge density cutoff     =     500.0000  Ry
     scf convergence threshold =      1.0E-12
     mixing beta               =       0.7000
     number of iterations used =            8  plain     mixing
     energy convergence thresh.=      1.0E-04
     force convergence thresh. =      1.9E-10
     press convergence thresh. =      5.0E-03
     Exchange-correlation= SLA  PW   PBX  PBC
                           (   1   4   3   4   0   0   0)
     nstep                     =         2000

     celldm(1)=  23.764638  celldm(2)=   0.000000  celldm(3)=   0.000000
     celldm(4)=   0.000000  celldm(5)=   0.000000  celldm(6)=   0.000000

     crystal axes: (cart. coord. in units of alat)
               a(1) = (   1.002932  -0.000644   0.000000 )
               a(2) = (  -0.502021   0.868245   0.000000 )
               a(3) = (   0.000000   0.000000   1.192775 )

     reciprocal axes: (cart. coord. in units 2 pi/alat)
               b(1) = (  0.997447  0.576725  0.000000 )
               b(2) = (  0.000740  1.152177  0.000000 )
               b(3) = (  0.000000  0.000000  0.838381 )

     PseudoPot. # 1 for B  read from file:
     ./pseudo/B.pbe-n-kjpaw_psl.1.0.0.UPF
     MD5 check sum: 8c825a5969375aca5c2c6ad5945b3059
     Pseudo is Projector augmented-wave + core cor, Zval =  3.0
     Generated using &quot;atomic&quot; code by A. Dal Corso  v.6.3
     Shape of augmentation charge: PSQ
     Using radial grid of 1059 points,  4 beta functions with:
                l(1) =   0
                l(2) =   0
                l(3) =   1
                l(4) =   1
     Q(r) pseudized with 0 coefficients

     PseudoPot. # 2 for N  read from file:
     ./pseudo/N.pbe-n-kjpaw_psl.1.0.0.UPF
     MD5 check sum: 14c48229446f9f2d411169a3abcbc3fa
     Pseudo is Projector augmented-wave + core cor, Zval =  5.0
     Generated using &quot;atomic&quot; code by A. Dal Corso  v.6.3
     Shape of augmentation charge: PSQ
     Using radial grid of 1085 points,  4 beta functions with:
                l(1) =   0
                l(2) =   0
                l(3) =   1
                l(4) =   1
     Q(r) pseudized with 0 coefficients

     PseudoPot. # 3 for C  read from file:
     ./pseudo/C.pbe-n-kjpaw_psl.1.0.0.UPF
     MD5 check sum: 5f16ad9a65e90284d1d834d4ab3b0f7d
     Pseudo is Projector augmented-wave + core cor, Zval =  4.0
     Generated using &quot;atomic&quot; code by A. Dal Corso  v.6.3
     Shape of augmentation charge: PSQ
     Using radial grid of 1073 points,  4 beta functions with:
                l(1) =   0
                l(2) =   0
                l(3) =   1
                l(4) =   1
     Q(r) pseudized with 0 coefficients

     atomic species   valence    mass     pseudopotential
        B              3.00    10.81100     B ( 1.00)
        N              5.00    14.00670     N ( 1.00)
        C              4.00    12.01070     C ( 1.00)

      2 Sym. Ops. (no inversion) found

   Cartesian axes

     site n.     atom                  positions (alat units)
         1           B   tau(   1) = (  -0.0001811   0.1152846   0.5963877  )
         2           B   tau(   2) = (  -0.0999400   0.2896191   0.5963877  )
         3           B   tau(   3) = (  -0.2016271   0.4632574   0.5963877  )
         4           B   tau(   4) = (  -0.3016770   0.6368537   0.5963877  )
         5           B   tau(   5) = (  -0.4016039   0.8102689   0.5963877  )
         6           B   tau(   6) = (   0.2010370   0.1141147   0.5963877  )
         7           B   tau(   7) = (   0.1014487   0.2859447   0.5963877  )
         8           B   tau(   8) = (  -0.0020699   0.4661043   0.5963877  )
         9           B   tau(   9) = (  -0.1031908   0.6379793   0.5963877  )
        10           B   tau(  10) = (  -0.2014585   0.8104364   0.5963877  )
        11           B   tau(  11) = (   0.4010339   0.1157708   0.5963877  )
        12           B   tau(  12) = (   0.3002225   0.2888106   0.5963877  )
        13           C   tau(  13) = (   0.2019028   0.4618326   0.5963877  )
        14           B   tau(  14) = (   0.0962177   0.6363427   0.5963877  )
        15           B   tau(  15) = (  -0.0010947   0.8105881   0.5963877  )
        16           B   tau(  16) = (   0.6017394   0.1152782   0.5963877  )
        17           B   tau(  17) = (   0.5013459   0.2889482   0.5963877  )
        18           B   tau(  18) = (   0.4009041   0.4631954   0.5963877  )
        19           B   tau(  19) = (   0.3039998   0.6367719   0.5963877  )
        20           B   tau(  20) = (   0.2001240   0.8093429   0.5963877  )
        21           B   tau(  21) = (   0.8024362   0.1151129   0.5963877  )
        22           B   tau(  22) = (   0.7019453   0.2888392   0.5963877  )
        23           B   tau(  23) = (   0.6011666   0.4624093   0.5963877  )
        24           B   tau(  24) = (   0.5026031   0.6364402   0.5963877  )
        25           B   tau(  25) = (   0.4009816   0.8101156   0.5963877  )
        26           N   tau(  26) = (   0.1003334   0.0574638   0.5963877  )
        27           N   tau(  27) = (  -0.0000100   0.2303964   0.5963877  )
        28           N   tau(  28) = (  -0.1011476   0.4058513   0.5963877  )
        29           N   tau(  29) = (  -0.2023225   0.5790047   0.5963877  )
        30           N   tau(  30) = (  -0.3016026   0.7525328   0.5963877  )
        31           N   tau(  31) = (   0.3011370   0.0574194   0.5963877  )
        32           N   tau(  32) = (   0.2014336   0.2291356   0.5963877  )
        33           C   tau(  33) = (   0.1045526   0.4064254   0.5963877  )
        34           N   tau(  34) = (  -0.0044578   0.5809754   0.5963877  )
        35           N   tau(  35) = (  -0.1016828   0.7533171   0.5963877  )
        36           N   tau(  36) = (   0.5012236   0.0580808   0.5963877  )
        37           N   tau(  37) = (   0.4008734   0.2317196   0.5963877  )
        38           N   tau(  38) = (   0.2997060   0.4053656   0.5963877  )
        39           C   tau(  39) = (   0.2012121   0.5738439   0.5963877  )
        40           N   tau(  40) = (   0.0988600   0.7522730   0.5963877  )
        41           N   tau(  41) = (   0.7020622   0.0570634   0.5963877  )
        42           N   tau(  42) = (   0.6016702   0.2310257   0.5963877  )
        43           N   tau(  43) = (   0.5006716   0.4045743   0.5963877  )
        44           N   tau(  44) = (   0.4031901   0.5785866   0.5963877  )
        45           N   tau(  45) = (   0.3013771   0.7524119   0.5963877  )
        46           N   tau(  46) = (   0.9026379   0.0572611   0.5963877  )
        47           N   tau(  47) = (   0.8025220   0.2310640   0.5963877  )
        48           N   tau(  48) = (   0.7012222   0.4044870   0.5963877  )
        49           N   tau(  49) = (   0.6017524   0.5780982   0.5963877  )
        50           N   tau(  50) = (   0.5013128   0.7519774   0.5963877  )

     number of k points=     4  Methfessel-Paxton smearing, width (Ry)=  0.0100
                       cart. coord. in units 2pi/alat
        k(    1) = (   0.0000000   0.0000000   0.0000000), wk =   0.5000000
        k(    2) = (  -0.0003700  -0.5760884   0.0000000), wk =   0.5000000
        k(    3) = (  -0.4987233  -0.2883627   0.0000000), wk =   0.5000000
        k(    4) = (  -0.4990933  -0.8644511   0.0000000), wk =   0.5000000

     Initial potential from superposition of free atoms

     starting charge  198.99293, renormalised to  199.00000

     negative rho (up, down):  1.346E-03 0.000E+00
     Starting wfcs are  200 randomized atomic wfcs
     Checking if some PAW data can be deallocated...

     Self-consistent Calculation

     iteration #  1     ecut=    60.00 Ry     beta= 0.70
     CG style diagonalization
     ethr =  1.00E-02,  avg # of iterations =  3.0

     negative rho (up, down):  1.207E-03 0.000E+00

     total energy              =    -980.05300381 Ry
     estimated scf accuracy    <       9.86015231 Ry

[...]

     iteration #  4     ecut=    60.00 Ry     beta= 0.70
     CG style diagonalization
     c_bands:  1 eigenvalues not converged
     c_bands:  3 eigenvalues not converged
     c_bands:  4 eigenvalues not converged
     c_bands:  2 eigenvalues not converged
     ethr =  1.14E-04,  avg # of iterations =  5.1

[...]

     End of self-consistent calculation

          k = 0.0000 0.0000 0.0000 (109459 PWs)   bands (ev):

   -23.4827 -23.0721 -22.7419 -22.7275 -22.6933 -22.5105 -22.4469 -21.6760
   -21.3969 -21.3709 -21.3595 -21.2144 -21.2127 -21.0317 -20.9005 -20.8975
   -20.8342 -20.5107 -20.4972 -20.1312 -20.1088 -20.0804 -20.0511 -18.7078
   -16.6656 -14.7367 -14.2701 -14.2536 -14.1960 -14.1516 -14.1145 -14.0053
   -13.9252 -13.8236 -13.8097 -13.6690 -13.5182 -12.4694 -12.3664 -12.3336
   -12.3104 -12.1008 -12.0738 -11.9605 -11.7771 -11.7364 -11.6645 -11.5834
   -11.4267 -11.0198 -10.7099 -10.6368 -10.5927 -10.5078 -10.4417 -10.3551
   -10.2020 -10.0703 -10.0600 -10.0499 -10.0262  -9.9106  -9.8909  -9.8732
    -9.8451  -9.8352  -9.8184  -9.8091  -9.8060  -9.7316  -9.5129  -9.4979
    -9.2553  -9.0005  -8.4688  -8.4404  -8.4031  -8.3429  -8.2296  -8.2175
    -8.2013  -8.1909  -8.0705  -8.0311  -7.9205  -7.6644  -7.6154  -7.5229
    -7.5139  -7.4680  -7.2920  -7.1117  -6.7473  -6.7339  -6.3331  -6.3029
    -6.2588  -6.2546  -5.9855  -4.9553  -1.7377  -1.1030  -1.0810  -1.0805
    -1.0573  -1.0193  -0.9316  -0.3184  -0.1334  -0.0885  -0.0770  -0.0336
    -0.0094   0.0892   0.0970   0.1068   0.1108   0.1499   1.1629   1.1958

          k =-0.0004-0.5761 0.0000 (109392 PWs)   bands (ev):

[...]

     the Fermi energy is    -4.9948 ev

!    total energy              =    -983.49944434 Ry

     total all-electron energy =     -3944.408429 Ry
     estimated scf accuracy    <          9.8E-13 Ry
     smearing contrib. (-TS)   =      -0.00250668 Ry
     internal energy E=F+TS    =    -983.49693766 Ry

     The total energy is F=E-TS. E is the sum of the following terms:
     one-electron contribution =   -6146.50715368 Ry
     hartree contribution      =    3103.98839932 Ry
     xc contribution           =    -219.12194858 Ry
[...]

[...]

     Threshold (ethr) on eigenvalues was too large:
     Diagonalizing with lowered threshold

     CG style diagonalization
     c_bands:  2 eigenvalues not converged
     c_bands:  2 eigenvalues not converged
     ethr =  1.72E-09,  avg # of iterations =  9.4

[...]

     iteration # 10     ecut=    60.00 Ry     beta= 0.70
     CG style diagonalization
     c_bands:  1 eigenvalues not converged
     ethr =  1.10E-13,  avg # of iterations =  3.1

[...]

     Energy error            =      1.8E-06 Ry
     Gradient error          =      3.3E-04 Ry/Bohr
     Cell gradient error     =      1.3E-01 kbar

[...]

     enthalpy           old  =    -983.4994443426 Ry
     enthalpy           new  =    -983.4994461855 Ry

     CASE: enthalpy          _new < enthalpy          _old

[...]

     CG style diagonalization
     c_bands:  2 eigenvalues not converged
     ethr =  3.75E-10,  avg # of iterations =  9.4

[...]

     small trust_radius: resetting bfgs history

[...]

     CG style diagonalization
     ethr =  7.05E-12,  avg # of iterations = 15.8

[...]

     Energy error            =      2.1E-08 Ry
     Gradient error          =      5.5E-05 Ry/Bohr
     Cell gradient error     =      5.4E-03 kbar

     number of scf cycles    =   5
     number of bfgs steps    =   4

     enthalpy           old  =    -983.4994472649 Ry
     enthalpy           new  =    -983.4994472859 Ry

     CASE: enthalpy          _new < enthalpy          _old

     Message from routine bfgs :: compute_trust_radius:
     history already reset at previous step: stopping
     small trust_radius: resetting bfgs history

     new trust radius        =       0.0000559759 bohr
     new conv_thr            =            1.0E-14 Ry

     new unit-cell volume =  13932.43668 a.u.^3 (  2064.57411 Ang^3 )
     density =      0.49678 g/cm^3

[...]

ATOMIC_POSITIONS (crystal)
B             0.0663024116        0.1328124808        0.5000000000
B             0.0673421941        0.3336118117        0.5000000000
B             0.0660519231        0.5336081972        0.5000000000
B             0.0663801131        0.7335462748        0.5000000000
B             0.0667286513        0.9332713488        0.5000000000
B             0.2663253591        0.1316060213        0.5000000000
B             0.2660642316        0.3295061643        0.5000000000
B             0.2667141405        0.5370211581        0.5000000000
B             0.2649944742        0.7350055259        0.5000000000
B             0.2664537254        0.9336198872        0.5000000000
B             0.4667804786        0.1336846185        0.5000000000
B             0.4660115622        0.3329726226        0.5000000000
C             0.4677461111        0.5322538886        0.5000000000
B             0.4629788418        0.7332858595        0.5000000000
B             0.4663918027        0.9339480772        0.5000000000
B             0.6666915090        0.1332633161        0.5000000000
B             0.6667124477        0.3332875521        0.5000000000
B             0.6670273771        0.5339884375        0.5000000000
B             0.6704938355        0.7339357684        0.5000000000
B             0.6663881882        0.9326578062        0.5000000000
B             0.8667798432        0.1332201570        0.5000000000
B             0.8667366839        0.3333084908        0.5000000000
B             0.8663153816        0.5332195214        0.5000000000
B             0.8683939784        0.7336746409        0.5000000000
B             0.8671875195        0.9336975889        0.5000000000
N             0.1332155922        0.0662728782        0.5000000000
N             0.1328496249        0.2654421266        0.5000000000
N             0.1331587256        0.4675294224        0.5000000000
N             0.1321144732        0.6669667581        0.5000000000
N             0.1331743795        0.8668256202        0.5000000000
N             0.3334858096        0.0663772477        0.5000000000
N             0.3330519317        0.2641411506        0.5000000000
C             0.3386668634        0.4683437146        0.5000000000
N             0.3306096445        0.6693903557        0.5000000000
N             0.3330332421        0.8678855268        0.5000000001
N             0.5334442201        0.0672914085        0.5000000000
N             0.5334887381        0.2672757290        0.4999999999
N             0.5327310855        0.4672689149        0.5000000000
C             0.5316562857        0.6613331371        0.5000000000
N             0.5324705778        0.8668412744        0.5000000000
N             0.7331847983        0.0662651258        0.5000000000
N             0.7333757787        0.2666242214        0.4999999999
N             0.7327242712        0.4665112623        0.5000000000
N             0.7358588491        0.6669480685        0.5000000000
N             0.7345578734        0.8671503753        0.5000000000
N             0.9333607542        0.0666392453        0.5000000000
N             0.9337348740        0.2668152016        0.5000000000
N             0.9327085913        0.4665557801        0.5000000000
N             0.9336227517        0.6665141903        0.5000000000
N             0.9337271210        0.8667844074        0.5000000000

     Writing output data file ./TMP_DIR/hBN.save/
     NEW-OLD atomic charge density approx. for the potential

     negative rho (up, down):  3.163E-03 0.000E+00
     extrapolated charge  199.00033, renormalised to  199.00000

     Self-consistent Calculation

[...]

     Threshold (ethr) on eigenvalues was too large:
     Diagonalizing with lowered threshold

     CG style diagonalization
     ethr =  5.44E-12,  avg # of iterations = 16.2

[...]

     total energy              =    -983.49944730 Ry
     estimated scf accuracy    <          2.7E-14 Ry

     iteration # 11     ecut=    60.00 Ry     beta= 0.70
     CG style diagonalization
     ethr =  1.00E-13,  avg # of iterations =  3.0

[...]

     End of self-consistent calculation

          k = 0.0000 0.0000 0.0000 (109459 PWs)   bands (ev):

[...]

          k =-0.4991-0.8645 0.0000 (109368 PWs)   bands (ev):

   -23.4176 -23.1506 -23.0135 -22.8290 -22.4277 -22.1800 -22.0815 -22.0097
   -21.9119 -21.5660 -21.3656 -21.2878 -21.2151 -20.9806 -20.5866 -20.5332
   -20.4906 -20.4855 -20.4742 -20.4404 -20.4160 -20.0986 -19.9949 -18.7272
   -16.6811 -14.8846 -14.4213 -14.3806 -14.3687 -14.2383 -13.8601 -13.7379
   -13.7324 -13.5836 -13.4940 -13.4876 -13.0159 -12.9731 -12.8776 -12.7298
   -12.7200 -12.4444 -12.0668 -11.8865 -11.5876 -11.5005 -11.3933 -11.3599
   -11.0629 -10.9663 -10.8932 -10.8462 -10.8103 -10.6765 -10.4896 -10.4305
   -10.4224 -10.3527 -10.3108 -10.2296 -10.0675 -10.0557  -9.9990  -9.9748
    -9.5382  -9.4651  -9.3803  -9.3257  -9.2575  -9.2384  -9.2229  -9.1778
    -9.1499  -9.1314  -9.0022  -8.9618  -8.9077  -8.6903  -8.6005  -8.2201
    -8.1730  -8.0626  -8.0032  -7.9967  -7.9136  -7.7438  -7.5817  -7.0956
    -7.0264  -6.9613  -6.9196  -6.9080  -6.8809  -6.8340  -6.8333  -6.7949
    -6.4843  -6.3794  -5.9642  -4.9822  -1.6572  -1.0551  -1.0466  -0.9069
    -0.8223  -0.8001  -0.7539  -0.7336  -0.7127  -0.3507  -0.2635  -0.2539
    -0.1550  -0.1505  -0.1403   0.1483   0.2098   0.6361   0.7396   0.7554

     the Fermi energy is    -4.9929 ev

!    total energy              =    -983.49944730 Ry

     total all-electron energy =     -3944.408432 Ry
     estimated scf accuracy    <          2.7E-15 Ry
     smearing contrib. (-TS)   =      -0.00250668 Ry
     internal energy E=F+TS    =    -983.49694061 Ry

     The total energy is F=E-TS. E is the sum of the following terms:
     one-electron contribution =   -6147.60911272 Ry
     hartree contribution      =    3104.54304291 Ry
     xc contribution           =    -219.13132259 Ry
     ewald contribution        =    2605.57635323 Ry
     one-center paw contrib.   =    -326.87590144 Ry

     convergence has been achieved in  11 iterations

     negative rho (up, down):  3.163E-03 0.000E+00

     Forces acting on atoms (cartesian axes, Ry/au):

     atom    1 type  1   force =     0.00000550    0.00002456    0.00000000
     atom    2 type  1   force =     0.00001101    0.00001146    0.00000000
     atom    3 type  1   force =     0.00001924   -0.00002089    0.00000000
     atom    4 type  1   force =     0.00001855   -0.00002582    0.00000000
     atom    5 type  1   force =     0.00000281   -0.00000164    0.00000000
     atom    6 type  1   force =     0.00000027    0.00003651    0.00000000
     atom    7 type  1   force =    -0.00001263    0.00002008    0.00000000
     atom    8 type  1   force =    -0.00000432   -0.00000995    0.00000000
     atom    9 type  1   force =     0.00002101   -0.00001213    0.00000000
     atom   10 type  1   force =     0.00003163   -0.00000317    0.00000000
     atom   11 type  1   force =     0.00001597    0.00002206    0.00000000
     atom   12 type  1   force =    -0.00002023    0.00003484    0.00000000
     atom   13 type  3   force =     0.00000191   -0.00000110    0.00000000
     atom   14 type  1   force =     0.00000646    0.00000872    0.00000000
     atom   15 type  1   force =     0.00002772   -0.00000622    0.00000000
     atom   16 type  1   force =     0.00000834   -0.00000656    0.00000000
     atom   17 type  1   force =    -0.00002215    0.00001280    0.00000000
     atom   18 type  1   force =    -0.00004028    0.00000011    0.00000000
     atom   19 type  1   force =    -0.00002370    0.00000090    0.00000000
     atom   20 type  1   force =    -0.00000441   -0.00001526    0.00000000
     atom   21 type  1   force =     0.00000547   -0.00000316    0.00000000
     atom   22 type  1   force =     0.00000985   -0.00000393    0.00000000
     atom   23 type  1   force =    -0.00001113   -0.00002485    0.00000000
     atom   24 type  1   force =    -0.00003149   -0.00001849    0.00000000
     atom   25 type  1   force =    -0.00001852   -0.00001706    0.00000000
     atom   26 type  2   force =     0.00001722   -0.00003825    0.00000000
     atom   27 type  2   force =    -0.00000499   -0.00004421    0.00000000
     atom   28 type  2   force =    -0.00002160   -0.00000361    0.00000000
     atom   29 type  2   force =    -0.00003660    0.00001811    0.00000000
     atom   30 type  2   force =    -0.00000164    0.00000096    0.00000000
     atom   31 type  2   force =    -0.00000311   -0.00001498    0.00000000
     atom   32 type  2   force =     0.00000289   -0.00004745    0.00000000
     atom   33 type  3   force =    -0.00002898   -0.00000325    0.00000000
     atom   34 type  2   force =    -0.00003642    0.00002101    0.00000000
     atom   35 type  2   force =    -0.00003399    0.00002264    0.00000000
     atom   36 type  2   force =    -0.00000164    0.00002601    0.00000000
     atom   37 type  2   force =     0.00001777   -0.00002434    0.00000000
     atom   38 type  2   force =    -0.00000330    0.00000189    0.00000000
     atom   39 type  3   force =    -0.00001168    0.00002671    0.00000000
     atom   40 type  2   force =    -0.00000769    0.00002051    0.00000000
     atom   41 type  2   force =     0.00001491    0.00003512    0.00000000
     atom   42 type  2   force =     0.00000746   -0.00000431    0.00000000
     atom   43 type  2   force =     0.00002997   -0.00000323    0.00000000
     atom   44 type  2   force =     0.00004254    0.00002121    0.00000000
     atom   45 type  2   force =     0.00003580    0.00002643    0.00000000
     atom   46 type  2   force =     0.00001929   -0.00001112    0.00000000
     atom   47 type  2   force =    -0.00002295   -0.00003047    0.00000000
     atom   48 type  2   force =    -0.00002333   -0.00001160    0.00000000
     atom   49 type  2   force =     0.00001144    0.00001019    0.00000000
     atom   50 type  2   force =     0.00004175    0.00000422    0.00000000

     Total force =     0.000206     Total SCF correction =     0.000000

     Computing stress (Cartesian axis) and pressure

     negative rho (up, down):  3.163E-03 0.000E+00
          total   stress  (Ry/bohr**3)                   (kbar)     P=       -0.17
   0.00000002  -0.00000001   0.00000000            0.00       -0.00        0.00
  -0.00000001   0.00000002   0.00000000           -0.00        0.00        0.00
   0.00000000   0.00000000  -0.00000359            0.00        0.00       -0.53

     Message from routine bfgs:
     history already reset at previous step: exiting
     Energy error            =      1.1E-08 Ry
     Gradient error          =      4.7E-05 Ry/Bohr
     Cell gradient error     =      3.6E-03 kbar

     bfgs converged in   6 scf cycles and   5 bfgs steps
     (criteria: energy <  1.0E-04 Ry, force <  1.9E-10Ry/Bohr, cell <  5.0E-03kbar)

     End of BFGS Geometry Optimization

     Final enthalpy           =    -983.4994472968 Ry

     File ./TMP_DIR/hBN.bfgs deleted, as requested
Begin final coordinates
     new unit-cell volume =  13932.43668 a.u.^3 (  2064.57411 Ang^3 )
     density =      0.49678 g/cm^3

CELL_PARAMETERS (alat= 23.76463845)
   1.002844635  -0.000647646   0.000000000
  -0.501979802   0.868167068   0.000000000
   0.000000000   0.000000000   1.192775420

ATOMIC_POSITIONS (crystal)
B             0.0663024116        0.1328124808        0.5000000000
B             0.0673421941        0.3336118117        0.5000000000
B             0.0660519231        0.5336081972        0.5000000000
B             0.0663801131        0.7335462748        0.5000000000
B             0.0667286513        0.9332713488        0.5000000000
B             0.2663253591        0.1316060213        0.5000000000
B             0.2660642316        0.3295061643        0.5000000000
B             0.2667141405        0.5370211581        0.5000000000
B             0.2649944742        0.7350055259        0.5000000000
B             0.2664537254        0.9336198872        0.5000000000
B             0.4667804786        0.1336846185        0.5000000000
B             0.4660115622        0.3329726226        0.5000000000
C             0.4677461111        0.5322538886        0.5000000000
B             0.4629788418        0.7332858595        0.5000000000
B             0.4663918027        0.9339480772        0.5000000000
B             0.6666915090        0.1332633161        0.5000000000
B             0.6667124477        0.3332875521        0.5000000000
B             0.6670273771        0.5339884375        0.5000000000
B             0.6704938355        0.7339357684        0.5000000000
B             0.6663881882        0.9326578062        0.5000000000
B             0.8667798432        0.1332201570        0.5000000000
B             0.8667366839        0.3333084908        0.5000000000
B             0.8663153816        0.5332195214        0.5000000000
B             0.8683939784        0.7336746409        0.5000000000
B             0.8671875195        0.9336975889        0.5000000000
N             0.1332155922        0.0662728782        0.5000000000
N             0.1328496249        0.2654421266        0.5000000000
N             0.1331587256        0.4675294224        0.5000000000
N             0.1321144732        0.6669667581        0.5000000000
N             0.1331743795        0.8668256202        0.5000000000
N             0.3334858096        0.0663772477        0.5000000000
N             0.3330519317        0.2641411506        0.5000000000
C             0.3386668634        0.4683437146        0.5000000000
N             0.3306096445        0.6693903557        0.5000000000
N             0.3330332421        0.8678855268        0.5000000001
N             0.5334442201        0.0672914085        0.5000000000
N             0.5334887381        0.2672757290        0.4999999999
N             0.5327310855        0.4672689149        0.5000000000
C             0.5316562857        0.6613331371        0.5000000000
N             0.5324705778        0.8668412744        0.5000000000
N             0.7331847983        0.0662651258        0.5000000000
N             0.7333757787        0.2666242214        0.4999999999
N             0.7327242712        0.4665112623        0.5000000000
N             0.7358588491        0.6669480685        0.5000000000
N             0.7345578734        0.8671503753        0.5000000000
N             0.9333607542        0.0666392453        0.5000000000
N             0.9337348740        0.2668152016        0.5000000000
N             0.9327085913        0.4665557801        0.5000000000
N             0.9336227517        0.6665141903        0.5000000000
N             0.9337271210        0.8667844074        0.5000000000
End final coordinates

     Writing output data file ./TMP_DIR/hBN.save/

     Writing output data file ./TMP_DIR/hBN.save/

     General routines

     Parallel routines

   This run was terminated on:  12:12:40  26Nov2022

   JOB DONE.