     Program PHONON v.6.8 starts on  1Dec2022 at 11:13:55

     R & G space division:  proc/nbgrp/npool/nimage =      64

     Waiting for input...
     Reading input from standard input

     Reading xml data from directory:

     ./TMP_DIR/4/hBN.save/
     file N.pbe-n-kjpaw_psl.1.0.0.UPF: wavefunction(s)  2S renormalized
     file C.pbe-n-kjpaw_psl.1.0.0.UPF: wavefunction(s)  2S 2P renormalized

     IMPORTANT: XC functional enforced from input :
     Exchange-correlation= PBE
                           (   1   4   3   4   0   0   0)
     Any further DFT definition will be discarded
     Please, verify this is what you really want

     Using Slab Decomposition

 ----2D----2D----2D----2D----2D----2D----2D----2D----2D----2D----2D----2D
  The code is running with the 2D cutoff
  Please refer to:
  Sohier, T., Calandra, M., & Mauri, F. (2017),
  Density functional perturbation theory for gated two-dimensional heterostructu
 res:
  Theoretical developments and application to flexural phonons in graphene.
 ----2D----2D----2D----2D----2D----2D----2D----2D----2D----2D----2D----2D

     negative rho (up, down):  3.161E-03 0.000E+00
     Reading collected, re-writing distributed wavefunctions

     Saving dvscf to file. Distribute only q points, not irreducible represetations.
        1 /   4 q-points for this run, from  4 to  4:
       N       xq(1)         xq(2)         xq(3)
       1   0.000000000   0.000000000   0.000000000
       2  -0.000372209  -0.576140554   0.000000000
       3  -0.498767177  -0.288391018   0.000000000
       4  -0.499139386  -0.864531571   0.000000000

     Calculation of q =   -0.4991394  -0.8645316   0.0000000

     Bands found: reading from ./TMP_DIR/4/_ph0/hBN.q_4/

     Reading xml data from directory:

     ./TMP_DIR/4/_ph0/hBN.q_4/hBN.save/
     Message from routine qexsd_readschema :
     input info not found or not readable in xml file
     file N.pbe-n-kjpaw_psl.1.0.0.UPF: wavefunction(s)  2S renormalized
     file C.pbe-n-kjpaw_psl.1.0.0.UPF: wavefunction(s)  2S 2P renormalized

     IMPORTANT: XC functional enforced from input :
     Exchange-correlation= PBE
                           (   1   4   3   4   0   0   0)
     Any further DFT definition will be discarded
     Please, verify this is what you really want

     Using Slab Decomposition

 ----2D----2D----2D----2D----2D----2D----2D----2D----2D----2D----2D----2D
  The code is running with the 2D cutoff
  Please refer to:
  Sohier, T., Calandra, M., & Mauri, F. (2017),
  Density functional perturbation theory for gated two-dimensional heterostructu
 res:
  Theoretical developments and application to flexural phonons in graphene.
 ----2D----2D----2D----2D----2D----2D----2D----2D----2D----2D----2D----2D

     negative rho (up, down):  3.161E-03 0.000E+00
     read_file_new: Wavefunctions not in collected format?!?
     read_file: Wavefunctions in collected format not available

     Restart in Phonon calculation

     Phonon dispersions for hBN

     bravais-lattice index     =            0
     lattice parameter (alat)  =      23.7646  a.u.
     unit-cell volume          =   13932.4750 (a.u.)^3
     number of atoms/cell      =           50
     number of atomic types    =            3
     kinetic-energy cut-off    =      60.0000  Ry
     charge density cut-off    =     500.0000  Ry
     convergence threshold     =      1.0E-16
     beta                      =       0.1000
     number of iterations used =            4
     Exchange-correlation= PBE
                           (   1   4   3   4   0   0   0)

     celldm(1)=   23.76464  celldm(2)=    0.00000  celldm(3)=    0.00000
     celldm(4)=    0.00000  celldm(5)=    0.00000  celldm(6)=    0.00000

     crystal axes: (cart. coord. in units of alat)
               a(1) = (  1.0028 -0.0006  0.0000 )
               a(2) = ( -0.5020  0.8682  0.0000 )
               a(3) = (  0.0000  0.0000  1.1928 )

     reciprocal axes: (cart. coord. in units 2 pi/alat)
               b(1) = (  0.9975  0.5768  0.0000 )
               b(2) = (  0.0007  1.1523  0.0000 )
               b(3) = (  0.0000  0.0000  0.8384 )

     Atoms inside the unit cell:

     Cartesian axes

     site n.  atom      mass           positions (alat units)
        1     B   10.8110   tau(    1) = (   -0.00017    0.11526    0.59639  )
        2     B   10.8110   tau(    2) = (   -0.09993    0.28958    0.59639  )
        3     B   10.8110   tau(    3) = (   -0.20162    0.46322    0.59639  )
        4     B   10.8110   tau(    4) = (   -0.30166    0.63680    0.59639  )
        5     B   10.8110   tau(    5) = (   -0.40156    0.81019    0.59639  )
        6     B   10.8110   tau(    6) = (    0.20102    0.11408    0.59639  )
        7     B   10.8110   tau(    7) = (    0.10141    0.28589    0.59639  )
        8     B   10.8110   tau(    8) = (   -0.00211    0.46605    0.59639  )
        9     B   10.8110   tau(    9) = (   -0.10321    0.63794    0.59639  )
       10     B   10.8110   tau(   10) = (   -0.20145    0.81037    0.59639  )
       11     B   10.8110   tau(   11) = (    0.40100    0.11576    0.59639  )
       12     B   10.8110   tau(   12) = (    0.30019    0.28878    0.59639  )
       13     C   12.0107   tau(   13) = (    0.20189    0.46179    0.59639  )
       14     B   10.8110   tau(   14) = (    0.09620    0.63632    0.59639  )
       15     B   10.8110   tau(   15) = (   -0.00110    0.81052    0.59639  )
       16     B   10.8110   tau(   16) = (    0.60170    0.11526    0.59639  )
       17     B   10.8110   tau(   17) = (    0.50130    0.28892    0.59639  )
       18     B   10.8110   tau(   18) = (    0.40087    0.46316    0.59639  )
       19     B   10.8110   tau(   19) = (    0.30398    0.63675    0.59639  )
       20     B   10.8110   tau(   20) = (    0.20011    0.80927    0.59639  )
       21     B   10.8110   tau(   21) = (    0.80238    0.11509    0.59639  )
       22     B   10.8110   tau(   22) = (    0.70189    0.28880    0.59639  )
       23     B   10.8110   tau(   23) = (    0.60111    0.46236    0.59639  )
       24     B   10.8110   tau(   24) = (    0.50257    0.63639    0.59639  )
       25     B   10.8110   tau(   25) = (    0.40096    0.81004    0.59639  )
       26     N   14.0067   tau(   26) = (    0.10033    0.05745    0.59639  )
       27     N   14.0067   tau(   27) = (   -0.00002    0.23036    0.59639  )
       28     N   14.0067   tau(   28) = (   -0.10116    0.40581    0.59639  )
       29     N   14.0067   tau(   29) = (   -0.20232    0.57895    0.59639  )
       30     N   14.0067   tau(   30) = (   -0.30157    0.75246    0.59639  )
       31     N   14.0067   tau(   31) = (    0.30112    0.05741    0.59639  )
       32     N   14.0067   tau(   32) = (    0.20140    0.22910    0.59639  )
       33     C   12.0107   tau(   33) = (    0.10453    0.40638    0.59639  )
       34     N   14.0067   tau(   34) = (   -0.00447    0.58093    0.59639  )
       35     N   14.0067   tau(   35) = (   -0.10168    0.75326    0.59639  )
       36     N   14.0067   tau(   36) = (    0.50119    0.05808    0.59639  )
       37     N   14.0067   tau(   37) = (    0.40084    0.23170    0.59639  )
       38     N   14.0067   tau(   38) = (    0.29968    0.40533    0.59639  )
       39     C   12.0107   tau(   39) = (    0.20119    0.57381    0.59639  )
       40     N   14.0067   tau(   40) = (    0.09885    0.75222    0.59639  )
       41     N   14.0067   tau(   41) = (    0.70201    0.05706    0.59639  )
       42     N   14.0067   tau(   42) = (    0.60162    0.23100    0.59639  )
       43     N   14.0067   tau(   43) = (    0.50063    0.40454    0.59639  )
       44     N   14.0067   tau(   44) = (    0.40316    0.57855    0.59639  )
       45     N   14.0067   tau(   45) = (    0.30136    0.75236    0.59639  )
       46     N   14.0067   tau(   46) = (    0.90257    0.05725    0.59639  )
       47     N   14.0067   tau(   47) = (    0.80246    0.23103    0.59639  )
       48     N   14.0067   tau(   48) = (    0.70116    0.40444    0.59639  )
       49     N   14.0067   tau(   49) = (    0.60170    0.57804    0.59639  )
       50     N   14.0067   tau(   50) = (    0.50128    0.75191    0.59639  )

     Computing dynamical matrix for
                    q = (  -0.4991394  -0.8645316   0.0000000 )

      3 Sym.Ops. (with q -> -q+G )

     G cutoff = 7152.7441  (  41101 G-vectors)     FFT grid: (180,180,216)
     G cutoff = 3433.3172  (  13668 G-vectors)  smooth grid: (120,120,144)

     number of k points=     8  Methfessel-Paxton smearing, width (Ry)=  0.0100

     PseudoPot. # 1 for B  read from file:
     ./pseudo/B.pbe-n-kjpaw_psl.1.0.0.UPF
     MD5 check sum: 8c825a5969375aca5c2c6ad5945b3059
     Pseudo is Projector augmented-wave + core cor, Zval =  3.0
     Generated using &quot;atomic&quot; code by A. Dal Corso  v.6.3
     Shape of augmentation charge: PSQ
     Using radial grid of 1059 points,  4 beta functions with:
                l(1) =   0
                l(2) =   0
                l(3) =   1
                l(4) =   1
     Q(r) pseudized with 0 coefficients

     PseudoPot. # 2 for N  read from file:
     ./pseudo/N.pbe-n-kjpaw_psl.1.0.0.UPF
     MD5 check sum: 14c48229446f9f2d411169a3abcbc3fa
     Pseudo is Projector augmented-wave + core cor, Zval =  5.0
     Generated using &quot;atomic&quot; code by A. Dal Corso  v.6.3
     Shape of augmentation charge: PSQ
     Using radial grid of 1085 points,  4 beta functions with:
                l(1) =   0
                l(2) =   0
                l(3) =   1
                l(4) =   1
     Q(r) pseudized with 0 coefficients

     PseudoPot. # 3 for C  read from file:
     ./pseudo/C.pbe-n-kjpaw_psl.1.0.0.UPF
     MD5 check sum: 5f16ad9a65e90284d1d834d4ab3b0f7d
     Pseudo is Projector augmented-wave + core cor, Zval =  4.0
     Generated using &quot;atomic&quot; code by A. Dal Corso  v.6.3
     Shape of augmentation charge: PSQ
     Using radial grid of 1073 points,  4 beta functions with:
                l(1) =   0
                l(2) =   0
                l(3) =   1
                l(4) =   1
     Q(r) pseudized with 0 coefficients

     Mode symmetry, C_s (m)     point group:

     Atomic displacements:
     There are  149 irreducible representations

     Representation     1      1 modes -  Done

[...]

     Representation   130      1 modes -  Done

     Representation   131      1 modes -  To be done

[...]

     Representation   149      1 modes -  To be done

     Representation # 131 mode # 132

     Self-consistent Calculation

      thresh= 4.518E-08 alpha_mix =  0.100 |ddv_scf|^2 =  1.025E-13

[...]

     End of self-consistent calculation

     Convergence has been achieved

[...]

     Representation # 149 mode # 150

     Self-consistent Calculation

[...]

      thresh= 1.653E-09 alpha_mix =  0.100 |ddv_scf|^2 =  8.000E-17

     End of self-consistent calculation

     Convergence has been achieved

     Number of q in the star =    1
     List of q in the star:
          1  -0.499139386  -0.864531571   0.000000000

     Diagonalizing the dynamical matrix

     q = (   -0.499139386  -0.864531571   0.000000000 )

     freq (    1) =       0.709397 [THz] =      23.662933 [cm-1]
     freq (    2) =       1.289061 [THz] =      42.998451 [cm-1]
     freq (    3) =       1.927535 [THz] =      64.295648 [cm-1]
     freq (    4) =       2.008805 [THz] =      67.006508 [cm-1]
     freq (    5) =       3.732494 [THz] =     124.502599 [cm-1]
     freq (    6) =       3.770039 [THz] =     125.754980 [cm-1]
     freq (    7) =       3.847593 [THz] =     128.341898 [cm-1]
     freq (    8) =       3.877636 [THz] =     129.344027 [cm-1]
     freq (    9) =       4.892035 [THz] =     163.180721 [cm-1]
     freq (   10) =       4.913864 [THz] =     163.908866 [cm-1]
     freq (   11) =       5.366408 [THz] =     179.004110 [cm-1]
     freq (   12) =       5.489053 [THz] =     183.095093 [cm-1]
     freq (   13) =       6.285207 [THz] =     209.651936 [cm-1]
     freq (   14) =       6.405450 [THz] =     213.662805 [cm-1]
     freq (   15) =       6.492244 [THz] =     216.557940 [cm-1]
     freq (   16) =       6.656842 [THz] =     222.048356 [cm-1]
     freq (   17) =       7.899697 [THz] =     263.505515 [cm-1]
     freq (   18) =       7.986363 [THz] =     266.396388 [cm-1]
     freq (   19) =       8.118204 [THz] =     270.794153 [cm-1]
     freq (   20) =       8.261731 [THz] =     275.581680 [cm-1]
     freq (   21) =       8.550659 [THz] =     285.219283 [cm-1]
     freq (   22) =       8.785759 [THz] =     293.061376 [cm-1]
     freq (   23) =       8.797485 [THz] =     293.452510 [cm-1]
     freq (   24) =       8.840404 [THz] =     294.884149 [cm-1]
     freq (   25) =       8.937479 [THz] =     298.122225 [cm-1]
     freq (   26) =       8.937735 [THz] =     298.130748 [cm-1]
     freq (   27) =       9.141987 [THz] =     304.943859 [cm-1]
     freq (   28) =       9.528025 [THz] =     317.820700 [cm-1]
     freq (   29) =       9.554476 [THz] =     318.703012 [cm-1]
     freq (   30) =       9.625928 [THz] =     321.086385 [cm-1]
     freq (   31) =       9.738049 [THz] =     324.826342 [cm-1]
     freq (   32) =      13.458369 [THz] =     448.922884 [cm-1]
     freq (   33) =      13.615761 [THz] =     454.172890 [cm-1]
     freq (   34) =      13.705300 [THz] =     457.159608 [cm-1]
     freq (   35) =      13.722875 [THz] =     457.745830 [cm-1]
     freq (   36) =      13.838619 [THz] =     461.606634 [cm-1]
     freq (   37) =      13.928968 [THz] =     464.620371 [cm-1]
     freq (   38) =      14.649251 [THz] =     488.646411 [cm-1]
     freq (   39) =      14.811550 [THz] =     494.060114 [cm-1]
     freq (   40) =      16.320218 [THz] =     544.383868 [cm-1]
     freq (   41) =      16.498402 [THz] =     550.327452 [cm-1]
     freq (   42) =      16.559473 [THz] =     552.364572 [cm-1]
     freq (   43) =      16.680973 [THz] =     556.417360 [cm-1]
     freq (   44) =      16.857677 [THz] =     562.311578 [cm-1]
     freq (   45) =      16.892448 [THz] =     563.471406 [cm-1]
     freq (   46) =      17.268415 [THz] =     576.012335 [cm-1]
     freq (   47) =      17.849762 [THz] =     595.403980 [cm-1]
     freq (   48) =      17.945439 [THz] =     598.595402 [cm-1]
     freq (   49) =      18.099215 [THz] =     603.724823 [cm-1]
     freq (   50) =      18.249864 [THz] =     608.749952 [cm-1]
     freq (   51) =      18.301227 [THz] =     610.463211 [cm-1]
     freq (   52) =      18.397075 [THz] =     613.660367 [cm-1]
     freq (   53) =      18.675636 [THz] =     622.952151 [cm-1]
     freq (   54) =      18.979370 [THz] =     633.083632 [cm-1]
     freq (   55) =      18.992121 [THz] =     633.508956 [cm-1]
     freq (   56) =      19.029753 [THz] =     634.764228 [cm-1]
     freq (   57) =      19.089664 [THz] =     636.762662 [cm-1]
     freq (   58) =      19.107400 [THz] =     637.354243 [cm-1]
     freq (   59) =      19.183690 [THz] =     639.899009 [cm-1]
     freq (   60) =      20.089732 [THz] =     670.121338 [cm-1]
[...]
     freq (  136) =      40.773622 [THz] =    1360.061632 [cm-1]
     freq (  137) =      40.923536 [THz] =    1365.062223 [cm-1]
     freq (  138) =      41.539606 [THz] =    1385.612099 [cm-1]
     freq (  139) =      41.597401 [THz] =    1387.539949 [cm-1]
     freq (  140) =      41.990770 [THz] =    1400.661305 [cm-1]
     freq (  141) =      42.390225 [THz] =    1413.985699 [cm-1]
     freq (  142) =      43.171473 [THz] =    1440.045334 [cm-1]
     freq (  143) =      43.354781 [THz] =    1446.159814 [cm-1]
     freq (  144) =      43.503498 [THz] =    1451.120509 [cm-1]
     freq (  145) =      43.647053 [THz] =    1455.908969 [cm-1]
     freq (  146) =      43.961668 [THz] =    1466.403414 [cm-1]
     freq (  147) =      43.965548 [THz] =    1466.532824 [cm-1]
     freq (  148) =      44.654024 [THz] =    1489.497899 [cm-1]
     freq (  149) =      44.676328 [THz] =    1490.241885 [cm-1]
     freq (  150) =      44.788153 [THz] =    1493.971984 [cm-1]

     Mode symmetry, C_s (m)     point group:

     freq (   1-   1) =         23.7  [cm-1]   --> A''
     freq (   2-   2) =         43.0  [cm-1]   --> A''
     freq (   3-   3) =         64.3  [cm-1]   --> A''
     freq (   4-   4) =         67.0  [cm-1]   --> A''
     freq (   5-   5) =        124.5  [cm-1]   --> A''
     freq (   6-   6) =        125.8  [cm-1]   --> A''
     freq (   7-   7) =        128.3  [cm-1]   --> A''
     freq (   8-   8) =        129.3  [cm-1]   --> A''
     freq (   9-   9) =        163.2  [cm-1]   --> A''
     freq (  10-  10) =        163.9  [cm-1]   --> A''
     freq (  11-  11) =        179.0  [cm-1]   --> A'
     freq (  12-  12) =        183.1  [cm-1]   --> A'
     freq (  13-  13) =        209.7  [cm-1]   --> A''
     freq (  14-  14) =        213.7  [cm-1]   --> A''
     freq (  15-  15) =        216.6  [cm-1]   --> A''
     freq (  16-  16) =        222.0  [cm-1]   --> A''
     freq (  17-  17) =        263.5  [cm-1]   --> A''
     freq (  18-  18) =        266.4  [cm-1]   --> A''
     freq (  19-  19) =        270.8  [cm-1]   --> A''
     freq (  20-  20) =        275.6  [cm-1]   --> A''
     freq (  21-  21) =        285.2  [cm-1]   --> A''
     freq (  22-  22) =        293.1  [cm-1]   --> A'
     freq (  23-  23) =        293.5  [cm-1]   --> A''
     freq (  24-  24) =        294.9  [cm-1]   --> A''
     freq (  25-  25) =        298.1  [cm-1]   --> A'
     freq (  26-  26) =        298.1  [cm-1]   --> A''
     freq (  27-  27) =        304.9  [cm-1]   --> A''
     freq (  28-  28) =        317.8  [cm-1]   --> A'
     freq (  29-  29) =        318.7  [cm-1]   --> A''
     freq (  30-  30) =        321.1  [cm-1]   --> A'
     freq (  31-  31) =        324.8  [cm-1]   --> A''
     freq (  32-  32) =        448.9  [cm-1]   --> A'
     freq (  33-  33) =        454.2  [cm-1]   --> A'
     freq (  34-  34) =        457.2  [cm-1]   --> A'
     freq (  35-  35) =        457.7  [cm-1]   --> A'
     freq (  36-  36) =        461.6  [cm-1]   --> A'
     freq (  37-  37) =        464.6  [cm-1]   --> A'
     freq (  38-  38) =        488.6  [cm-1]   --> A'
     freq (  39-  39) =        494.1  [cm-1]   --> A'
     freq (  40-  40) =        544.4  [cm-1]   --> A'
     freq (  41-  41) =        550.3  [cm-1]   --> A'
     freq (  42-  42) =        552.4  [cm-1]   --> A'
     freq (  43-  43) =        556.4  [cm-1]   --> A'
     freq (  44-  44) =        562.3  [cm-1]   --> A'
     freq (  45-  45) =        563.5  [cm-1]   --> A''
     freq (  46-  46) =        576.0  [cm-1]   --> A''
     freq (  47-  47) =        595.4  [cm-1]   --> A'
     freq (  48-  48) =        598.6  [cm-1]   --> A'
     freq (  49-  49) =        603.7  [cm-1]   --> A'
     freq (  50-  50) =        608.7  [cm-1]   --> A''
     freq (  51-  51) =        610.5  [cm-1]   --> A'
     freq (  52-  52) =        613.7  [cm-1]   --> A''
     freq (  53-  53) =        623.0  [cm-1]   --> A''
     freq (  54-  54) =        633.1  [cm-1]   --> A''
     freq (  55-  55) =        633.5  [cm-1]   --> A''
     freq (  56-  56) =        634.8  [cm-1]   --> A''
     freq (  57-  57) =        636.8  [cm-1]   --> A''
     freq (  58-  58) =        637.4  [cm-1]   --> A''
     freq (  59-  59) =        639.9  [cm-1]   --> A''
     freq (  60-  60) =        670.1  [cm-1]   --> A''
     freq (  61-  61) =        679.6  [cm-1]   --> A''
     freq (  62-  62) =        681.0  [cm-1]   --> A''
     freq (  63-  63) =        684.7  [cm-1]   --> A''
     freq (  64-  64) =        705.4  [cm-1]   --> A'
     freq (  65-  65) =        706.8  [cm-1]   --> A'
     freq (  66-  66) =        707.3  [cm-1]   --> A'
     freq (  67-  67) =        709.2  [cm-1]   --> A'
     freq (  68-  68) =        711.6  [cm-1]   --> A''
     freq (  69-  69) =        713.4  [cm-1]   --> A'
     freq (  70-  70) =        713.7  [cm-1]   --> A'
     freq (  71-  71) =        716.6  [cm-1]   --> A'
     freq (  72-  72) =        718.2  [cm-1]   --> A''
     freq (  73-  73) =        724.6  [cm-1]   --> A'
     freq (  74-  74) =        731.3  [cm-1]   --> A''
     freq (  75-  75) =        731.4  [cm-1]   --> A''
     freq (  76-  76) =        732.5  [cm-1]   --> A''
     freq (  77-  77) =        741.5  [cm-1]   --> A''
     freq (  78-  78) =        768.7  [cm-1]   --> A''
     freq (  79-  79) =        772.7  [cm-1]   --> A''
     freq (  80-  80) =        787.9  [cm-1]   --> A''
     freq (  81-  81) =        797.4  [cm-1]   --> A''
     freq (  82-  82) =        809.1  [cm-1]   --> A'
     freq (  83-  83) =        824.9  [cm-1]   --> A'
     freq (  84-  84) =        837.4  [cm-1]   --> A'
     freq (  85-  85) =        839.4  [cm-1]   --> A'
     freq (  86-  86) =        910.0  [cm-1]   --> A'
     freq (  87-  87) =        915.3  [cm-1]   --> A'
     freq (  88-  88) =        925.4  [cm-1]   --> A'
     freq (  89-  89) =        933.0  [cm-1]   --> A'
     freq (  90-  90) =        979.4  [cm-1]   --> A'
     freq (  91-  91) =        982.3  [cm-1]   --> A'
     freq (  92-  92) =        991.4  [cm-1]   --> A'
     freq (  93-  93) =       1001.5  [cm-1]   --> A'
     freq (  94-  94) =       1031.5  [cm-1]   --> A'
     freq (  95-  95) =       1040.8  [cm-1]   --> A'
     freq (  96-  96) =       1084.4  [cm-1]   --> A'
     freq (  97-  97) =       1087.4  [cm-1]   --> A'
     freq (  98-  98) =       1091.6  [cm-1]   --> A'
     freq (  99-  99) =       1103.3  [cm-1]   --> A'
     freq ( 100- 100) =       1143.6  [cm-1]   --> A'
     freq ( 101- 101) =       1177.6  [cm-1]   --> A'
     freq ( 102- 102) =       1185.3  [cm-1]   --> A'
     freq ( 103- 103) =       1221.1  [cm-1]   --> A'
     freq ( 104- 104) =       1226.1  [cm-1]   --> A'
     freq ( 105- 105) =       1229.5  [cm-1]   --> A'
     freq ( 106- 106) =       1230.6  [cm-1]   --> A'
     freq ( 107- 107) =       1231.9  [cm-1]   --> A'
     freq ( 108- 108) =       1234.0  [cm-1]   --> A'
     freq ( 109- 109) =       1237.8  [cm-1]   --> A'
     freq ( 110- 110) =       1241.2  [cm-1]   --> A'
     freq ( 111- 111) =       1246.3  [cm-1]   --> A'
     freq ( 112- 112) =       1249.6  [cm-1]   --> A'
     freq ( 113- 113) =       1252.3  [cm-1]   --> A'
     freq ( 114- 114) =       1254.0  [cm-1]   --> A'
     freq ( 115- 115) =       1255.3  [cm-1]   --> A'
     freq ( 116- 116) =       1258.5  [cm-1]   --> A'
     freq ( 117- 117) =       1261.4  [cm-1]   --> A'
     freq ( 118- 118) =       1262.4  [cm-1]   --> A'
     freq ( 119- 119) =       1264.6  [cm-1]   --> A'
     freq ( 120- 120) =       1267.4  [cm-1]   --> A'
     freq ( 121- 121) =       1275.3  [cm-1]   --> A'
     freq ( 122- 122) =       1276.7  [cm-1]   --> A'
     freq ( 123- 123) =       1284.1  [cm-1]   --> A'
     freq ( 124- 124) =       1285.1  [cm-1]   --> A'
     freq ( 125- 125) =       1287.6  [cm-1]   --> A'
     freq ( 126- 126) =       1288.0  [cm-1]   --> A'
     freq ( 127- 127) =       1293.7  [cm-1]   --> A'
     freq ( 128- 128) =       1293.9  [cm-1]   --> A'
     freq ( 129- 129) =       1299.1  [cm-1]   --> A'
     freq ( 130- 130) =       1306.6  [cm-1]   --> A'
     freq ( 131- 131) =       1308.8  [cm-1]   --> A'
     freq ( 132- 132) =       1318.0  [cm-1]   --> A'
     freq ( 133- 133) =       1324.6  [cm-1]   --> A'
     freq ( 134- 134) =       1330.9  [cm-1]   --> A'
     freq ( 135- 135) =       1346.5  [cm-1]   --> A'
     freq ( 136- 136) =       1360.1  [cm-1]   --> A'
     freq ( 137- 137) =       1365.1  [cm-1]   --> A'
     freq ( 138- 138) =       1385.6  [cm-1]   --> A'
     freq ( 139- 139) =       1387.5  [cm-1]   --> A'
     freq ( 140- 140) =       1400.7  [cm-1]   --> A'
     freq ( 141- 141) =       1414.0  [cm-1]   --> A'
     freq ( 142- 142) =       1440.0  [cm-1]   --> A'
     freq ( 143- 143) =       1446.2  [cm-1]   --> A'
     freq ( 144- 144) =       1451.1  [cm-1]   --> A'
     freq ( 145- 145) =       1455.9  [cm-1]   --> A'
     freq ( 146- 146) =       1466.4  [cm-1]   --> A'
     freq ( 147- 147) =       1466.5  [cm-1]   --> A'
     freq ( 148- 148) =       1489.5  [cm-1]   --> A'
     freq ( 149- 149) =       1490.2  [cm-1]   --> A'
     freq ( 150- 150) =       1494.0  [cm-1]   --> A'

     INITIALIZATION:

     DYNAMICAL MATRIX:

      General routines

   This run was terminated on:  13:36:21   1Dec2022

   JOB DONE.