     Program PHONON v.6.8 starts on  1Dec2022 at 11:13:51

     R & G space division:  proc/nbgrp/npool/nimage =      64

     Waiting for input...
     Reading input from standard input

     Reading xml data from directory:

     ./TMP_DIR/2/hBN.save/
     file N.pbe-n-kjpaw_psl.1.0.0.UPF: wavefunction(s)  2S renormalized
     file C.pbe-n-kjpaw_psl.1.0.0.UPF: wavefunction(s)  2S 2P renormalized

     IMPORTANT: XC functional enforced from input :
     Exchange-correlation= PBE
                           (   1   4   3   4   0   0   0)
     Any further DFT definition will be discarded
     Please, verify this is what you really want

     Using Slab Decomposition

 ----2D----2D----2D----2D----2D----2D----2D----2D----2D----2D----2D----2D
  The code is running with the 2D cutoff
  Please refer to:
  Sohier, T., Calandra, M., & Mauri, F. (2017),
  Density functional perturbation theory for gated two-dimensional heterostructu
 res:
  Theoretical developments and application to flexural phonons in graphene.
 ----2D----2D----2D----2D----2D----2D----2D----2D----2D----2D----2D----2D

     negative rho (up, down):  3.161E-03 0.000E+00
     Reading collected, re-writing distributed wavefunctions

     Saving dvscf to file. Distribute only q points, not irreducible represetations.
        1 /   4 q-points for this run, from  2 to  2:
       N       xq(1)         xq(2)         xq(3)
       1   0.000000000   0.000000000   0.000000000
       2  -0.000372209  -0.576140554   0.000000000
       3  -0.498767177  -0.288391018   0.000000000
       4  -0.499139386  -0.864531571   0.000000000

     Calculation of q =   -0.0003722  -0.5761406   0.0000000

     Bands found: reading from ./TMP_DIR/2/_ph0/hBN.q_2/

     Reading xml data from directory:

     ./TMP_DIR/2/_ph0/hBN.q_2/hBN.save/
     Message from routine qexsd_readschema :
     input info not found or not readable in xml file
     file N.pbe-n-kjpaw_psl.1.0.0.UPF: wavefunction(s)  2S renormalized
     file C.pbe-n-kjpaw_psl.1.0.0.UPF: wavefunction(s)  2S 2P renormalized

     IMPORTANT: XC functional enforced from input :
     Exchange-correlation= PBE
                           (   1   4   3   4   0   0   0)
     Any further DFT definition will be discarded
     Please, verify this is what you really want

     Using Slab Decomposition

 ----2D----2D----2D----2D----2D----2D----2D----2D----2D----2D----2D----2D
  The code is running with the 2D cutoff
  Please refer to:
  Sohier, T., Calandra, M., & Mauri, F. (2017),
  Density functional perturbation theory for gated two-dimensional heterostructu
 res:
  Theoretical developments and application to flexural phonons in graphene.
 ----2D----2D----2D----2D----2D----2D----2D----2D----2D----2D----2D----2D

     negative rho (up, down):  3.161E-03 0.000E+00
     read_file_new: Wavefunctions not in collected format?!?
     read_file: Wavefunctions in collected format not available

     Restart in Phonon calculation

     Phonon dispersions for hBN

     bravais-lattice index     =            0
     lattice parameter (alat)  =      23.7646  a.u.
     unit-cell volume          =   13932.4750 (a.u.)^3
     number of atoms/cell      =           50
     number of atomic types    =            3
     kinetic-energy cut-off    =      60.0000  Ry
     charge density cut-off    =     500.0000  Ry
     convergence threshold     =      1.0E-16
     beta                      =       0.1000
     number of iterations used =            4
     Exchange-correlation= PBE
                           (   1   4   3   4   0   0   0)

     celldm(1)=   23.76464  celldm(2)=    0.00000  celldm(3)=    0.00000
     celldm(4)=    0.00000  celldm(5)=    0.00000  celldm(6)=    0.00000

     crystal axes: (cart. coord. in units of alat)
               a(1) = (  1.0028 -0.0006  0.0000 )
               a(2) = ( -0.5020  0.8682  0.0000 )
               a(3) = (  0.0000  0.0000  1.1928 )

     reciprocal axes: (cart. coord. in units 2 pi/alat)
               b(1) = (  0.9975  0.5768  0.0000 )
               b(2) = (  0.0007  1.1523  0.0000 )
               b(3) = (  0.0000  0.0000  0.8384 )

     Atoms inside the unit cell:

     Cartesian axes

     site n.  atom      mass           positions (alat units)
        1     B   10.8110   tau(    1) = (   -0.00017    0.11526    0.59639  )
        2     B   10.8110   tau(    2) = (   -0.09993    0.28958    0.59639  )
        3     B   10.8110   tau(    3) = (   -0.20162    0.46322    0.59639  )
        4     B   10.8110   tau(    4) = (   -0.30166    0.63680    0.59639  )
        5     B   10.8110   tau(    5) = (   -0.40156    0.81019    0.59639  )
        6     B   10.8110   tau(    6) = (    0.20102    0.11408    0.59639  )
        7     B   10.8110   tau(    7) = (    0.10141    0.28589    0.59639  )
        8     B   10.8110   tau(    8) = (   -0.00211    0.46605    0.59639  )
        9     B   10.8110   tau(    9) = (   -0.10321    0.63794    0.59639  )
       10     B   10.8110   tau(   10) = (   -0.20145    0.81037    0.59639  )
       11     B   10.8110   tau(   11) = (    0.40100    0.11576    0.59639  )
       12     B   10.8110   tau(   12) = (    0.30019    0.28878    0.59639  )
       13     C   12.0107   tau(   13) = (    0.20189    0.46179    0.59639  )
       14     B   10.8110   tau(   14) = (    0.09620    0.63632    0.59639  )
       15     B   10.8110   tau(   15) = (   -0.00110    0.81052    0.59639  )
       16     B   10.8110   tau(   16) = (    0.60170    0.11526    0.59639  )
       17     B   10.8110   tau(   17) = (    0.50130    0.28892    0.59639  )
       18     B   10.8110   tau(   18) = (    0.40087    0.46316    0.59639  )
       19     B   10.8110   tau(   19) = (    0.30398    0.63675    0.59639  )
       20     B   10.8110   tau(   20) = (    0.20011    0.80927    0.59639  )
       21     B   10.8110   tau(   21) = (    0.80238    0.11509    0.59639  )
       22     B   10.8110   tau(   22) = (    0.70189    0.28880    0.59639  )
       23     B   10.8110   tau(   23) = (    0.60111    0.46236    0.59639  )
       24     B   10.8110   tau(   24) = (    0.50257    0.63639    0.59639  )
       25     B   10.8110   tau(   25) = (    0.40096    0.81004    0.59639  )
       26     N   14.0067   tau(   26) = (    0.10033    0.05745    0.59639  )
       27     N   14.0067   tau(   27) = (   -0.00002    0.23036    0.59639  )
       28     N   14.0067   tau(   28) = (   -0.10116    0.40581    0.59639  )
       29     N   14.0067   tau(   29) = (   -0.20232    0.57895    0.59639  )
       30     N   14.0067   tau(   30) = (   -0.30157    0.75246    0.59639  )
       31     N   14.0067   tau(   31) = (    0.30112    0.05741    0.59639  )
       32     N   14.0067   tau(   32) = (    0.20140    0.22910    0.59639  )
       33     C   12.0107   tau(   33) = (    0.10453    0.40638    0.59639  )
       34     N   14.0067   tau(   34) = (   -0.00447    0.58093    0.59639  )
       35     N   14.0067   tau(   35) = (   -0.10168    0.75326    0.59639  )
       36     N   14.0067   tau(   36) = (    0.50119    0.05808    0.59639  )
       37     N   14.0067   tau(   37) = (    0.40084    0.23170    0.59639  )
       38     N   14.0067   tau(   38) = (    0.29968    0.40533    0.59639  )
       39     C   12.0107   tau(   39) = (    0.20119    0.57381    0.59639  )
       40     N   14.0067   tau(   40) = (    0.09885    0.75222    0.59639  )
       41     N   14.0067   tau(   41) = (    0.70201    0.05706    0.59639  )
       42     N   14.0067   tau(   42) = (    0.60162    0.23100    0.59639  )
       43     N   14.0067   tau(   43) = (    0.50063    0.40454    0.59639  )
       44     N   14.0067   tau(   44) = (    0.40316    0.57855    0.59639  )
       45     N   14.0067   tau(   45) = (    0.30136    0.75236    0.59639  )
       46     N   14.0067   tau(   46) = (    0.90257    0.05725    0.59639  )
       47     N   14.0067   tau(   47) = (    0.80246    0.23103    0.59639  )
       48     N   14.0067   tau(   48) = (    0.70116    0.40444    0.59639  )
       49     N   14.0067   tau(   49) = (    0.60170    0.57804    0.59639  )
       50     N   14.0067   tau(   50) = (    0.50128    0.75191    0.59639  )

     Computing dynamical matrix for
                    q = (  -0.0003722  -0.5761406   0.0000000 )

      3 Sym.Ops. (with q -> -q+G )

     G cutoff = 7152.7441  (  41101 G-vectors)     FFT grid: (180,180,216)
     G cutoff = 3433.3172  (  13668 G-vectors)  smooth grid: (120,120,144)

     number of k points=     8  Methfessel-Paxton smearing, width (Ry)=  0.0100

     PseudoPot. # 1 for B  read from file:
     ./pseudo/B.pbe-n-kjpaw_psl.1.0.0.UPF
     MD5 check sum: 8c825a5969375aca5c2c6ad5945b3059
     Pseudo is Projector augmented-wave + core cor, Zval =  3.0
     Generated using &quot;atomic&quot; code by A. Dal Corso  v.6.3
     Shape of augmentation charge: PSQ
     Using radial grid of 1059 points,  4 beta functions with:
                l(1) =   0
                l(2) =   0
                l(3) =   1
                l(4) =   1
     Q(r) pseudized with 0 coefficients

     PseudoPot. # 2 for N  read from file:
     ./pseudo/N.pbe-n-kjpaw_psl.1.0.0.UPF
     MD5 check sum: 14c48229446f9f2d411169a3abcbc3fa
     Pseudo is Projector augmented-wave + core cor, Zval =  5.0
     Generated using &quot;atomic&quot; code by A. Dal Corso  v.6.3
     Shape of augmentation charge: PSQ
     Using radial grid of 1085 points,  4 beta functions with:
                l(1) =   0
                l(2) =   0
                l(3) =   1
                l(4) =   1
     Q(r) pseudized with 0 coefficients

     PseudoPot. # 3 for C  read from file:
     ./pseudo/C.pbe-n-kjpaw_psl.1.0.0.UPF
     MD5 check sum: 5f16ad9a65e90284d1d834d4ab3b0f7d
     Pseudo is Projector augmented-wave + core cor, Zval =  4.0
     Generated using &quot;atomic&quot; code by A. Dal Corso  v.6.3
     Shape of augmentation charge: PSQ
     Using radial grid of 1073 points,  4 beta functions with:
                l(1) =   0
                l(2) =   0
                l(3) =   1
                l(4) =   1
     Q(r) pseudized with 0 coefficients

     Mode symmetry, C_s (m)     point group:

     Atomic displacements:
     There are  149 irreducible representations

     Representation     1      1 modes -  Done

[...]

     Representation   120      1 modes -  Done

     Representation   121      1 modes -  To be done

[...]

     Representation   149      1 modes -  To be done

     Representation # 121 mode # 122

     Self-consistent Calculation

      thresh= 1.195E-08 alpha_mix =  0.100 |ddv_scf|^2 =  4.037E-16

[...]

     End of self-consistent calculation

     Convergence has been achieved

[...]

     Representation # 149 mode # 150

     Self-consistent Calculation

[...]

      thresh= 1.547E-09 alpha_mix =  0.100 |ddv_scf|^2 =  4.267E-17

     End of self-consistent calculation

     Convergence has been achieved

     Number of q in the star =    1
     List of q in the star:
          1  -0.000372209  -0.576140554   0.000000000

     Diagonalizing the dynamical matrix

     q = (   -0.000372209  -0.576140554   0.000000000 )

     freq (    1) =       0.477589 [THz] =      15.930644 [cm-1]
     freq (    2) =       0.956641 [THz] =      31.910108 [cm-1]
     freq (    3) =       1.970458 [THz] =      65.727409 [cm-1]
     freq (    4) =       2.110896 [THz] =      70.411921 [cm-1]
     freq (    5) =       3.629964 [THz] =     121.082565 [cm-1]
     freq (    6) =       3.796533 [THz] =     126.638709 [cm-1]
     freq (    7) =       3.910013 [THz] =     130.424011 [cm-1]
     freq (    8) =       3.956620 [THz] =     131.978648 [cm-1]
     freq (    9) =       4.812211 [THz] =     160.518090 [cm-1]
     freq (   10) =       4.837620 [THz] =     161.365634 [cm-1]
     freq (   11) =       5.438143 [THz] =     181.396911 [cm-1]
     freq (   12) =       5.452816 [THz] =     181.886379 [cm-1]
     freq (   13) =       6.195834 [THz] =     206.670774 [cm-1]
     freq (   14) =       6.347051 [THz] =     211.714828 [cm-1]
     freq (   15) =       6.532131 [THz] =     217.888439 [cm-1]
     freq (   16) =       6.671045 [THz] =     222.522121 [cm-1]
     freq (   17) =       7.875829 [THz] =     262.709368 [cm-1]
     freq (   18) =       8.003792 [THz] =     266.977762 [cm-1]
     freq (   19) =       8.117666 [THz] =     270.776181 [cm-1]
     freq (   20) =       8.213225 [THz] =     273.963706 [cm-1]
     freq (   21) =       8.670386 [THz] =     289.212947 [cm-1]
     freq (   22) =       8.727749 [THz] =     291.126356 [cm-1]
     freq (   23) =       8.832672 [THz] =     294.626224 [cm-1]
     freq (   24) =       8.838163 [THz] =     294.809377 [cm-1]
     freq (   25) =       8.893132 [THz] =     296.642952 [cm-1]
     freq (   26) =       8.913433 [THz] =     297.320118 [cm-1]
     freq (   27) =       9.094583 [THz] =     303.362625 [cm-1]
     freq (   28) =       9.495531 [THz] =     316.736808 [cm-1]
     freq (   29) =       9.535365 [THz] =     318.065549 [cm-1]
     freq (   30) =       9.625220 [THz] =     321.062775 [cm-1]
     freq (   31) =       9.720211 [THz] =     324.231326 [cm-1]
     freq (   32) =      13.518374 [THz] =     450.924418 [cm-1]
     freq (   33) =      13.607902 [THz] =     453.910759 [cm-1]
     freq (   34) =      13.669346 [THz] =     455.960301 [cm-1]
     freq (   35) =      13.688874 [THz] =     456.611689 [cm-1]
     freq (   36) =      13.884188 [THz] =     463.126677 [cm-1]
     freq (   37) =      13.942801 [THz] =     465.081785 [cm-1]
     freq (   38) =      14.601528 [THz] =     487.054548 [cm-1]
     freq (   39) =      14.767489 [THz] =     492.590421 [cm-1]
     freq (   40) =      16.277599 [THz] =     542.962259 [cm-1]
     freq (   41) =      16.528466 [THz] =     551.330270 [cm-1]
     freq (   42) =      16.557813 [THz] =     552.309187 [cm-1]
     freq (   43) =      16.658276 [THz] =     555.660292 [cm-1]
     freq (   44) =      16.834187 [THz] =     561.528031 [cm-1]
     freq (   45) =      17.071593 [THz] =     569.447056 [cm-1]
     freq (   46) =      17.202041 [THz] =     573.798322 [cm-1]
     freq (   47) =      17.904367 [THz] =     597.225382 [cm-1]
     freq (   48) =      17.955144 [THz] =     598.919145 [cm-1]
     freq (   49) =      17.969994 [THz] =     599.414492 [cm-1]
     freq (   50) =      18.129616 [THz] =     604.738891 [cm-1]
     freq (   51) =      18.177686 [THz] =     606.342353 [cm-1]
     freq (   52) =      18.591429 [THz] =     620.143321 [cm-1]
     freq (   53) =      18.711406 [THz] =     624.145308 [cm-1]
     freq (   54) =      18.878725 [THz] =     629.726473 [cm-1]
     freq (   55) =      18.961007 [THz] =     632.471100 [cm-1]
     freq (   56) =      19.013534 [THz] =     634.223235 [cm-1]
     freq (   57) =      19.036646 [THz] =     634.994143 [cm-1]
     freq (   58) =      19.103893 [THz] =     637.237291 [cm-1]
     freq (   59) =      19.216468 [THz] =     640.992389 [cm-1]
     freq (   60) =      20.226796 [THz] =     674.693305 [cm-1]
[...]
     freq (  136) =      40.706241 [THz] =    1357.814039 [cm-1]
     freq (  137) =      41.091186 [THz] =    1370.654436 [cm-1]
     freq (  138) =      41.516632 [THz] =    1384.845765 [cm-1]
     freq (  139) =      41.620750 [THz] =    1388.318778 [cm-1]
     freq (  140) =      41.922087 [THz] =    1398.370318 [cm-1]
     freq (  141) =      42.126864 [THz] =    1405.200943 [cm-1]
     freq (  142) =      43.205617 [THz] =    1441.184238 [cm-1]
     freq (  143) =      43.224768 [THz] =    1441.823054 [cm-1]
     freq (  144) =      43.711657 [THz] =    1458.063929 [cm-1]
     freq (  145) =      43.794193 [THz] =    1460.817023 [cm-1]
     freq (  146) =      43.825664 [THz] =    1461.866797 [cm-1]
     freq (  147) =      43.953583 [THz] =    1466.133715 [cm-1]
     freq (  148) =      44.573121 [THz] =    1486.799274 [cm-1]
     freq (  149) =      44.670949 [THz] =    1490.062472 [cm-1]
     freq (  150) =      44.820214 [THz] =    1495.041400 [cm-1]

     Mode symmetry, C_s (m)     point group:

     freq (   1-   1) =         15.9  [cm-1]   --> A''
     freq (   2-   2) =         31.9  [cm-1]   --> A''
     freq (   3-   3) =         65.7  [cm-1]   --> A''
     freq (   4-   4) =         70.4  [cm-1]   --> A''
     freq (   5-   5) =        121.1  [cm-1]   --> A''
     freq (   6-   6) =        126.6  [cm-1]   --> A''
     freq (   7-   7) =        130.4  [cm-1]   --> A''
     freq (   8-   8) =        132.0  [cm-1]   --> A''
     freq (   9-   9) =        160.5  [cm-1]   --> A''
     freq (  10-  10) =        161.4  [cm-1]   --> A''
     freq (  11-  11) =        181.4  [cm-1]   --> A'
     freq (  12-  12) =        181.9  [cm-1]   --> A'
     freq (  13-  13) =        206.7  [cm-1]   --> A''
     freq (  14-  14) =        211.7  [cm-1]   --> A''
     freq (  15-  15) =        217.9  [cm-1]   --> A''
     freq (  16-  16) =        222.5  [cm-1]   --> A''
     freq (  17-  17) =        262.7  [cm-1]   --> A''
     freq (  18-  18) =        267.0  [cm-1]   --> A''
     freq (  19-  19) =        270.8  [cm-1]   --> A''
     freq (  20-  20) =        274.0  [cm-1]   --> A''
     freq (  21-  21) =        289.2  [cm-1]   --> A''
     freq (  22-  22) =        291.1  [cm-1]   --> A''
     freq (  23-  23) =        294.6  [cm-1]   --> A'
     freq (  24-  24) =        294.8  [cm-1]   --> A''
     freq (  25-  25) =        296.6  [cm-1]   --> A''
     freq (  26-  26) =        297.3  [cm-1]   --> A'
     freq (  27-  27) =        303.4  [cm-1]   --> A''
     freq (  28-  28) =        316.7  [cm-1]   --> A''
     freq (  29-  29) =        318.1  [cm-1]   --> A'
     freq (  30-  30) =        321.1  [cm-1]   --> A'
     freq (  31-  31) =        324.2  [cm-1]   --> A''
     freq (  32-  32) =        450.9  [cm-1]   --> A'
     freq (  33-  33) =        453.9  [cm-1]   --> A'
     freq (  34-  34) =        456.0  [cm-1]   --> A'
     freq (  35-  35) =        456.6  [cm-1]   --> A'
     freq (  36-  36) =        463.1  [cm-1]   --> A'
     freq (  37-  37) =        465.1  [cm-1]   --> A'
     freq (  38-  38) =        487.1  [cm-1]   --> A'
     freq (  39-  39) =        492.6  [cm-1]   --> A'
     freq (  40-  40) =        543.0  [cm-1]   --> A'
     freq (  41-  41) =        551.3  [cm-1]   --> A'
     freq (  42-  42) =        552.3  [cm-1]   --> A'
     freq (  43-  43) =        555.7  [cm-1]   --> A'
     freq (  44-  44) =        561.5  [cm-1]   --> A'
     freq (  45-  45) =        569.4  [cm-1]   --> A''
     freq (  46-  46) =        573.8  [cm-1]   --> A''
     freq (  47-  47) =        597.2  [cm-1]   --> A'
     freq (  48-  48) =        598.9  [cm-1]   --> A'
     freq (  49-  49) =        599.4  [cm-1]   --> A''
     freq (  50-  50) =        604.7  [cm-1]   --> A'
     freq (  51-  51) =        606.3  [cm-1]   --> A'
     freq (  52-  52) =        620.1  [cm-1]   --> A''
     freq (  53-  53) =        624.1  [cm-1]   --> A''
     freq (  54-  54) =        629.7  [cm-1]   --> A''
     freq (  55-  55) =        632.5  [cm-1]   --> A''
     freq (  56-  56) =        634.2  [cm-1]   --> A''
     freq (  57-  57) =        635.0  [cm-1]   --> A''
     freq (  58-  58) =        637.2  [cm-1]   --> A''
     freq (  59-  59) =        641.0  [cm-1]   --> A''
     freq (  60-  60) =        674.7  [cm-1]   --> A''
     freq (  61-  61) =        680.1  [cm-1]   --> A''
     freq (  62-  62) =        682.5  [cm-1]   --> A''
     freq (  63-  63) =        683.8  [cm-1]   --> A''
     freq (  64-  64) =        703.9  [cm-1]   --> A'
     freq (  65-  65) =        705.6  [cm-1]   --> A'
     freq (  66-  66) =        707.2  [cm-1]   --> A'
     freq (  67-  67) =        708.2  [cm-1]   --> A'
     freq (  68-  68) =        711.6  [cm-1]   --> A'
     freq (  69-  69) =        713.6  [cm-1]   --> A'
     freq (  70-  70) =        714.0  [cm-1]   --> A''
     freq (  71-  71) =        715.9  [cm-1]   --> A''
     freq (  72-  72) =        716.3  [cm-1]   --> A'
     freq (  73-  73) =        728.9  [cm-1]   --> A''
     freq (  74-  74) =        729.2  [cm-1]   --> A'
     freq (  75-  75) =        731.5  [cm-1]   --> A''
     freq (  76-  76) =        733.2  [cm-1]   --> A''
     freq (  77-  77) =        740.8  [cm-1]   --> A''
     freq (  78-  78) =        767.6  [cm-1]   --> A''
     freq (  79-  79) =        774.5  [cm-1]   --> A''
     freq (  80-  80) =        788.2  [cm-1]   --> A''
     freq (  81-  81) =        797.0  [cm-1]   --> A''
     freq (  82-  82) =        813.2  [cm-1]   --> A'
     freq (  83-  83) =        822.5  [cm-1]   --> A'
     freq (  84-  84) =        836.9  [cm-1]   --> A'
     freq (  85-  85) =        840.5  [cm-1]   --> A'
     freq (  86-  86) =        911.6  [cm-1]   --> A'
     freq (  87-  87) =        915.5  [cm-1]   --> A'
     freq (  88-  88) =        926.6  [cm-1]   --> A'
     freq (  89-  89) =        928.2  [cm-1]   --> A'
     freq (  90-  90) =        979.6  [cm-1]   --> A'
     freq (  91-  91) =        985.8  [cm-1]   --> A'
     freq (  92-  92) =        990.0  [cm-1]   --> A'
     freq (  93-  93) =       1001.6  [cm-1]   --> A'
     freq (  94-  94) =       1033.6  [cm-1]   --> A'
     freq (  95-  95) =       1043.0  [cm-1]   --> A'
     freq (  96-  96) =       1081.5  [cm-1]   --> A'
     freq (  97-  97) =       1085.0  [cm-1]   --> A'
     freq (  98-  98) =       1095.0  [cm-1]   --> A'
     freq (  99-  99) =       1098.9  [cm-1]   --> A'
     freq ( 100- 100) =       1146.3  [cm-1]   --> A'
     freq ( 101- 101) =       1175.6  [cm-1]   --> A'
     freq ( 102- 102) =       1178.1  [cm-1]   --> A'
     freq ( 103- 103) =       1227.0  [cm-1]   --> A'
     freq ( 104- 104) =       1229.0  [cm-1]   --> A'
     freq ( 105- 105) =       1230.9  [cm-1]   --> A'
     freq ( 106- 106) =       1231.9  [cm-1]   --> A'
     freq ( 107- 107) =       1234.1  [cm-1]   --> A'
     freq ( 108- 108) =       1236.2  [cm-1]   --> A'
     freq ( 109- 109) =       1237.1  [cm-1]   --> A'
     freq ( 110- 110) =       1242.8  [cm-1]   --> A'
     freq ( 111- 111) =       1247.5  [cm-1]   --> A'
     freq ( 112- 112) =       1249.0  [cm-1]   --> A'
     freq ( 113- 113) =       1252.4  [cm-1]   --> A'
     freq ( 114- 114) =       1253.3  [cm-1]   --> A'
     freq ( 115- 115) =       1255.0  [cm-1]   --> A'
     freq ( 116- 116) =       1256.0  [cm-1]   --> A'
     freq ( 117- 117) =       1258.2  [cm-1]   --> A'
     freq ( 118- 118) =       1261.1  [cm-1]   --> A'
     freq ( 119- 119) =       1265.9  [cm-1]   --> A'
     freq ( 120- 120) =       1269.5  [cm-1]   --> A'
     freq ( 121- 121) =       1274.6  [cm-1]   --> A'
     freq ( 122- 122) =       1278.3  [cm-1]   --> A'
     freq ( 123- 123) =       1278.5  [cm-1]   --> A'
     freq ( 124- 124) =       1284.2  [cm-1]   --> A'
     freq ( 125- 125) =       1287.5  [cm-1]   --> A'
     freq ( 126- 126) =       1290.9  [cm-1]   --> A'
     freq ( 127- 127) =       1292.2  [cm-1]   --> A'
     freq ( 128- 128) =       1299.7  [cm-1]   --> A'
     freq ( 129- 129) =       1301.3  [cm-1]   --> A'
     freq ( 130- 130) =       1302.1  [cm-1]   --> A'
     freq ( 131- 131) =       1305.3  [cm-1]   --> A'
     freq ( 132- 132) =       1315.2  [cm-1]   --> A'
     freq ( 133- 133) =       1326.3  [cm-1]   --> A'
     freq ( 134- 134) =       1337.3  [cm-1]   --> A'
     freq ( 135- 135) =       1348.9  [cm-1]   --> A'
     freq ( 136- 136) =       1357.8  [cm-1]   --> A'
     freq ( 137- 137) =       1370.7  [cm-1]   --> A'
     freq ( 138- 138) =       1384.8  [cm-1]   --> A'
     freq ( 139- 139) =       1388.3  [cm-1]   --> A'
     freq ( 140- 140) =       1398.4  [cm-1]   --> A'
     freq ( 141- 141) =       1405.2  [cm-1]   --> A'
     freq ( 142- 142) =       1441.2  [cm-1]   --> A'
     freq ( 143- 143) =       1441.8  [cm-1]   --> A'
     freq ( 144- 144) =       1458.1  [cm-1]   --> A'
     freq ( 145- 145) =       1460.8  [cm-1]   --> A'
     freq ( 146- 146) =       1461.9  [cm-1]   --> A'
     freq ( 147- 147) =       1466.1  [cm-1]   --> A'
     freq ( 148- 148) =       1486.8  [cm-1]   --> A'
     freq ( 149- 149) =       1490.1  [cm-1]   --> A'
     freq ( 150- 150) =       1495.0  [cm-1]   --> A'

     INITIALIZATION:

     DYNAMICAL MATRIX:

      General routines

   This run was terminated on:  15: 0:49   1Dec2022

   JOB DONE.