     Program PHONON v.6.8 starts on 30Nov2022 at  8:23: 4

     R & G space division:  proc/nbgrp/npool/nimage =      64

     Waiting for input...
     Reading input from standard input

     Reading xml data from directory:

     ./TMP_DIR/1/hBN.save/
     file N.pbe-n-kjpaw_psl.1.0.0.UPF: wavefunction(s)  2S renormalized
     file C.pbe-n-kjpaw_psl.1.0.0.UPF: wavefunction(s)  2S 2P renormalized

     IMPORTANT: XC functional enforced from input :
     Exchange-correlation= PBE
                           (   1   4   3   4   0   0   0)
     Any further DFT definition will be discarded
     Please, verify this is what you really want

     Using Slab Decomposition

 ----2D----2D----2D----2D----2D----2D----2D----2D----2D----2D----2D----2D
  The code is running with the 2D cutoff
  Please refer to:
  Sohier, T., Calandra, M., & Mauri, F. (2017),
  Density functional perturbation theory for gated two-dimensional heterostructu
 res:
  Theoretical developments and application to flexural phonons in graphene.
 ----2D----2D----2D----2D----2D----2D----2D----2D----2D----2D----2D----2D

     negative rho (up, down):  3.161E-03 0.000E+00
     Reading collected, re-writing distributed wavefunctions

     Saving dvscf to file. Distribute only q points, not irreducible represetations.
        1 /   4 q-points for this run, from  1 to  1:
       N       xq(1)         xq(2)         xq(3)
       1   0.000000000   0.000000000   0.000000000
       2  -0.000372209  -0.576140554   0.000000000
       3  -0.498767177  -0.288391018   0.000000000
       4  -0.499139386  -0.864531571   0.000000000

     Calculation of q =    0.0000000   0.0000000   0.0000000

     Phonon dispersions for hBN

     bravais-lattice index     =            0
     lattice parameter (alat)  =      23.7646  a.u.
     unit-cell volume          =   13932.4750 (a.u.)^3
     number of atoms/cell      =           50
     number of atomic types    =            3
     kinetic-energy cut-off    =      60.0000  Ry
     charge density cut-off    =     500.0000  Ry
     convergence threshold     =      1.0E-16
     beta                      =       0.1000
     number of iterations used =            4
     Exchange-correlation= PBE
                           (   1   4   3   4   0   0   0)

     celldm(1)=   23.76464  celldm(2)=    0.00000  celldm(3)=    0.00000
     celldm(4)=    0.00000  celldm(5)=    0.00000  celldm(6)=    0.00000

     crystal axes: (cart. coord. in units of alat)
               a(1) = (  1.0028 -0.0006  0.0000 )
               a(2) = ( -0.5020  0.8682  0.0000 )
               a(3) = (  0.0000  0.0000  1.1928 )

     reciprocal axes: (cart. coord. in units 2 pi/alat)
               b(1) = (  0.9975  0.5768  0.0000 )
               b(2) = (  0.0007  1.1523  0.0000 )
               b(3) = (  0.0000  0.0000  0.8384 )

     Atoms inside the unit cell:

     Cartesian axes

     site n.  atom      mass           positions (alat units)
        1     B   10.8110   tau(    1) = (   -0.00017    0.11526    0.59639  )
        2     B   10.8110   tau(    2) = (   -0.09993    0.28958    0.59639  )
        3     B   10.8110   tau(    3) = (   -0.20162    0.46322    0.59639  )
        4     B   10.8110   tau(    4) = (   -0.30166    0.63680    0.59639  )
        5     B   10.8110   tau(    5) = (   -0.40156    0.81019    0.59639  )
        6     B   10.8110   tau(    6) = (    0.20102    0.11408    0.59639  )
        7     B   10.8110   tau(    7) = (    0.10141    0.28589    0.59639  )
        8     B   10.8110   tau(    8) = (   -0.00211    0.46605    0.59639  )
        9     B   10.8110   tau(    9) = (   -0.10321    0.63794    0.59639  )
       10     B   10.8110   tau(   10) = (   -0.20145    0.81037    0.59639  )
       11     B   10.8110   tau(   11) = (    0.40100    0.11576    0.59639  )
       12     B   10.8110   tau(   12) = (    0.30019    0.28878    0.59639  )
       13     C   12.0107   tau(   13) = (    0.20189    0.46179    0.59639  )
       14     B   10.8110   tau(   14) = (    0.09620    0.63632    0.59639  )
       15     B   10.8110   tau(   15) = (   -0.00110    0.81052    0.59639  )
       16     B   10.8110   tau(   16) = (    0.60170    0.11526    0.59639  )
       17     B   10.8110   tau(   17) = (    0.50130    0.28892    0.59639  )
       18     B   10.8110   tau(   18) = (    0.40087    0.46316    0.59639  )
       19     B   10.8110   tau(   19) = (    0.30398    0.63675    0.59639  )
       20     B   10.8110   tau(   20) = (    0.20011    0.80927    0.59639  )
       21     B   10.8110   tau(   21) = (    0.80238    0.11509    0.59639  )
       22     B   10.8110   tau(   22) = (    0.70189    0.28880    0.59639  )
       23     B   10.8110   tau(   23) = (    0.60111    0.46236    0.59639  )
       24     B   10.8110   tau(   24) = (    0.50257    0.63639    0.59639  )
       25     B   10.8110   tau(   25) = (    0.40096    0.81004    0.59639  )
       26     N   14.0067   tau(   26) = (    0.10033    0.05745    0.59639  )
       27     N   14.0067   tau(   27) = (   -0.00002    0.23036    0.59639  )
       28     N   14.0067   tau(   28) = (   -0.10116    0.40581    0.59639  )
       29     N   14.0067   tau(   29) = (   -0.20232    0.57895    0.59639  )
       30     N   14.0067   tau(   30) = (   -0.30157    0.75246    0.59639  )
       31     N   14.0067   tau(   31) = (    0.30112    0.05741    0.59639  )
       32     N   14.0067   tau(   32) = (    0.20140    0.22910    0.59639  )
       33     C   12.0107   tau(   33) = (    0.10453    0.40638    0.59639  )
       34     N   14.0067   tau(   34) = (   -0.00447    0.58093    0.59639  )
       35     N   14.0067   tau(   35) = (   -0.10168    0.75326    0.59639  )
       36     N   14.0067   tau(   36) = (    0.50119    0.05808    0.59639  )
       37     N   14.0067   tau(   37) = (    0.40084    0.23170    0.59639  )
       38     N   14.0067   tau(   38) = (    0.29968    0.40533    0.59639  )
       39     C   12.0107   tau(   39) = (    0.20119    0.57381    0.59639  )
       40     N   14.0067   tau(   40) = (    0.09885    0.75222    0.59639  )
       41     N   14.0067   tau(   41) = (    0.70201    0.05706    0.59639  )
       42     N   14.0067   tau(   42) = (    0.60162    0.23100    0.59639  )
       43     N   14.0067   tau(   43) = (    0.50063    0.40454    0.59639  )
       44     N   14.0067   tau(   44) = (    0.40316    0.57855    0.59639  )
       45     N   14.0067   tau(   45) = (    0.30136    0.75236    0.59639  )
       46     N   14.0067   tau(   46) = (    0.90257    0.05725    0.59639  )
       47     N   14.0067   tau(   47) = (    0.80246    0.23103    0.59639  )
       48     N   14.0067   tau(   48) = (    0.70116    0.40444    0.59639  )
       49     N   14.0067   tau(   49) = (    0.60170    0.57804    0.59639  )
       50     N   14.0067   tau(   50) = (    0.50128    0.75191    0.59639  )

     Computing dynamical matrix for
                    q = (   0.0000000   0.0000000   0.0000000 )

      3 Sym.Ops. (with q -> -q+G )

     G cutoff = 7152.7441  (  41101 G-vectors)     FFT grid: (180,180,216)
     G cutoff = 3433.3172  (  13668 G-vectors)  smooth grid: (120,120,144)

     number of k points=     4  Methfessel-Paxton smearing, width (Ry)=  0.0100

     PseudoPot. # 1 for B  read from file:
     ./pseudo/B.pbe-n-kjpaw_psl.1.0.0.UPF
     MD5 check sum: 8c825a5969375aca5c2c6ad5945b3059
     Pseudo is Projector augmented-wave + core cor, Zval =  3.0
     Generated using &quot;atomic&quot; code by A. Dal Corso  v.6.3
     Shape of augmentation charge: PSQ
     Using radial grid of 1059 points,  4 beta functions with:
                l(1) =   0
                l(2) =   0
                l(3) =   1
                l(4) =   1
     Q(r) pseudized with 0 coefficients

     PseudoPot. # 2 for N  read from file:
     ./pseudo/N.pbe-n-kjpaw_psl.1.0.0.UPF
     MD5 check sum: 14c48229446f9f2d411169a3abcbc3fa
     Pseudo is Projector augmented-wave + core cor, Zval =  5.0
     Generated using &quot;atomic&quot; code by A. Dal Corso  v.6.3
     Shape of augmentation charge: PSQ
     Using radial grid of 1085 points,  4 beta functions with:
                l(1) =   0
                l(2) =   0
                l(3) =   1
                l(4) =   1
     Q(r) pseudized with 0 coefficients

     PseudoPot. # 3 for C  read from file:
     ./pseudo/C.pbe-n-kjpaw_psl.1.0.0.UPF
     MD5 check sum: 5f16ad9a65e90284d1d834d4ab3b0f7d
     Pseudo is Projector augmented-wave + core cor, Zval =  4.0
     Generated using &quot;atomic&quot; code by A. Dal Corso  v.6.3
     Shape of augmentation charge: PSQ
     Using radial grid of 1073 points,  4 beta functions with:
                l(1) =   0
                l(2) =   0
                l(3) =   1
                l(4) =   1
     Q(r) pseudized with 0 coefficients

     Mode symmetry, C_s (m)     point group:

     Atomic displacements:
     There are  149 irreducible representations

     Representation     1      1 modes -  To be done

[...]

     Representation   149      1 modes -  To be done

     Alpha used in Ewald sum =   2.8000

     negative rho (up, down):  3.161E-03 0.000E+00

     Representation #   1 mode #   1

     Self-consistent Calculation

     Pert. #  1: Fermi energy shift (Ry) =    -5.3980E-03     0.0000E+00

      thresh= 1.000E-02 alpha_mix =  0.100 |ddv_scf|^2 =  3.437E-09

[...]

     End of self-consistent calculation

     Convergence has been achieved

[...]

     Representation #  76 modes #  76  77

[...]

     Representation # 149 mode # 150

     Self-consistent Calculation

[...]

     Pert. #  1: Fermi energy shift (Ry) =     0.0000E+00     0.0000E+00

      thresh= 1.304E-09 alpha_mix =  0.100 |ddv_scf|^2 =  7.453E-17

     End of self-consistent calculation

     Convergence has been achieved

     Number of q in the star =    1
     List of q in the star:
          1   0.000000000   0.000000000   0.000000000

     Diagonalizing the dynamical matrix

     q = (    0.000000000   0.000000000   0.000000000 )

     freq (    1) =      -0.343960 [THz] =     -11.473260 [cm-1]
     freq (    2) =       0.328550 [THz] =      10.959243 [cm-1]
     freq (    3) =       0.777311 [THz] =      25.928306 [cm-1]
     freq (    4) =       1.528689 [THz] =      50.991581 [cm-1]
     freq (    5) =       1.943524 [THz] =      64.828993 [cm-1]
     freq (    6) =       2.286905 [THz] =      76.282933 [cm-1]
     freq (    7) =       2.666306 [THz] =      88.938393 [cm-1]
     freq (    8) =       2.692528 [THz] =      89.813066 [cm-1]
     freq (    9) =       2.727850 [THz] =      90.991291 [cm-1]
     freq (   10) =       5.693113 [THz] =     189.901822 [cm-1]
     freq (   11) =       5.858867 [THz] =     195.430758 [cm-1]
     freq (   12) =       5.962949 [THz] =     198.902584 [cm-1]
     freq (   13) =       5.989969 [THz] =     199.803849 [cm-1]
     freq (   14) =       6.068990 [THz] =     202.439727 [cm-1]
     freq (   15) =       6.080060 [THz] =     202.808974 [cm-1]
     freq (   16) =       7.349376 [THz] =     245.148804 [cm-1]
     freq (   17) =       7.431398 [THz] =     247.884769 [cm-1]
     freq (   18) =       7.707527 [THz] =     257.095417 [cm-1]
     freq (   19) =       7.726187 [THz] =     257.717870 [cm-1]
     freq (   20) =       7.928189 [THz] =     264.455922 [cm-1]
     freq (   21) =       8.043794 [THz] =     268.312100 [cm-1]
     freq (   22) =       8.949257 [THz] =     298.515098 [cm-1]
     freq (   23) =       9.054107 [THz] =     302.012500 [cm-1]
     freq (   24) =       9.138392 [THz] =     304.823934 [cm-1]
     freq (   25) =       9.194787 [THz] =     306.705080 [cm-1]
     freq (   26) =       9.617764 [THz] =     320.814080 [cm-1]
     freq (   27) =       9.763198 [THz] =     325.665246 [cm-1]
     freq (   28) =       9.948887 [THz] =     331.859137 [cm-1]
     freq (   29) =      10.115921 [THz] =     337.430817 [cm-1]
     freq (   30) =      10.131681 [THz] =     337.956500 [cm-1]
     freq (   31) =      10.208532 [THz] =     340.519966 [cm-1]
     freq (   32) =      10.234541 [THz] =     341.387554 [cm-1]
     freq (   33) =      10.260072 [THz] =     342.239176 [cm-1]
     freq (   34) =      15.488278 [THz] =     516.633329 [cm-1]
     freq (   35) =      15.507389 [THz] =     517.270831 [cm-1]
     freq (   36) =      15.637282 [THz] =     521.603583 [cm-1]
     freq (   37) =      15.641522 [THz] =     521.745023 [cm-1]
     freq (   38) =      15.673336 [THz] =     522.806221 [cm-1]
     freq (   39) =      15.957879 [THz] =     532.297541 [cm-1]
     freq (   40) =      16.926363 [THz] =     564.602704 [cm-1]
     freq (   41) =      17.009604 [THz] =     567.379330 [cm-1]
     freq (   42) =      17.086619 [THz] =     569.948271 [cm-1]
     freq (   43) =      17.119357 [THz] =     571.040274 [cm-1]
     freq (   44) =      17.123943 [THz] =     571.193258 [cm-1]
     freq (   45) =      17.218839 [THz] =     574.358632 [cm-1]
     freq (   46) =      17.289082 [THz] =     576.701712 [cm-1]
     freq (   47) =      17.366265 [THz] =     579.276256 [cm-1]
     freq (   48) =      18.025055 [THz] =     601.251126 [cm-1]
     freq (   49) =      18.133873 [THz] =     604.880895 [cm-1]
     freq (   50) =      18.198815 [THz] =     607.047139 [cm-1]
     freq (   51) =      18.202437 [THz] =     607.167938 [cm-1]
     freq (   52) =      18.212600 [THz] =     607.506944 [cm-1]
     freq (   53) =      18.248959 [THz] =     608.719733 [cm-1]
     freq (   54) =      18.328286 [THz] =     611.365824 [cm-1]
     freq (   55) =      18.336454 [THz] =     611.638254 [cm-1]
     freq (   56) =      18.554469 [THz] =     618.910459 [cm-1]
     freq (   57) =      18.585505 [THz] =     619.945712 [cm-1]
     freq (   58) =      19.149167 [THz] =     638.747463 [cm-1]
     freq (   59) =      19.595705 [THz] =     653.642373 [cm-1]
     freq (   60) =      19.680186 [THz] =     656.460350 [cm-1]
[...]
     freq (  136) =      41.007123 [THz] =    1367.850374 [cm-1]
     freq (  137) =      41.184770 [THz] =    1373.776049 [cm-1]
     freq (  138) =      41.305564 [THz] =    1377.805296 [cm-1]
     freq (  139) =      41.574226 [THz] =    1386.766922 [cm-1]
     freq (  140) =      41.751296 [THz] =    1392.673339 [cm-1]
     freq (  141) =      41.801100 [THz] =    1394.334608 [cm-1]
     freq (  142) =      41.863751 [THz] =    1396.424437 [cm-1]
     freq (  143) =      42.297264 [THz] =    1410.884874 [cm-1]
     freq (  144) =      42.761025 [THz] =    1426.354269 [cm-1]
     freq (  145) =      44.307271 [THz] =    1477.931474 [cm-1]
     freq (  146) =      44.545185 [THz] =    1485.867443 [cm-1]
     freq (  147) =      44.557676 [THz] =    1486.284101 [cm-1]
     freq (  148) =      44.590102 [THz] =    1487.365713 [cm-1]
     freq (  149) =      44.680172 [THz] =    1490.370104 [cm-1]
     freq (  150) =      44.869834 [THz] =    1496.696546 [cm-1]

     Mode symmetry, C_s (m)     point group:

     freq (   1-   1) =        -11.5  [cm-1]   --> A'              I+R
     freq (   2-   2) =         11.0  [cm-1]   --> A'              I+R
     freq (   3-   3) =         25.9  [cm-1]   --> A''             I+R
     freq (   4-   4) =         51.0  [cm-1]   --> A''             I+R
     freq (   5-   5) =         64.8  [cm-1]   --> A''             I+R
     freq (   6-   6) =         76.3  [cm-1]   --> A''             I+R
     freq (   7-   7) =         88.9  [cm-1]   --> A''             I+R
     freq (   8-   8) =         89.8  [cm-1]   --> A''             I+R
     freq (   9-   9) =         91.0  [cm-1]   --> A''             I+R
     freq (  10-  10) =        189.9  [cm-1]   --> A''             I+R
     freq (  11-  11) =        195.4  [cm-1]   --> A''             I+R
     freq (  12-  12) =        198.9  [cm-1]   --> A''             I+R
     freq (  13-  13) =        199.8  [cm-1]   --> A''             I+R
     freq (  14-  14) =        202.4  [cm-1]   --> A''             I+R
     freq (  15-  15) =        202.8  [cm-1]   --> A''             I+R
     freq (  16-  16) =        245.1  [cm-1]   --> A''             I+R
     freq (  17-  17) =        247.9  [cm-1]   --> A''             I+R
     freq (  18-  18) =        257.1  [cm-1]   --> A''             I+R
     freq (  19-  19) =        257.7  [cm-1]   --> A''             I+R
     freq (  20-  20) =        264.5  [cm-1]   --> A''             I+R
     freq (  21-  21) =        268.3  [cm-1]   --> A''             I+R
     freq (  22-  22) =        298.5  [cm-1]   --> A''             I+R
     freq (  23-  23) =        302.0  [cm-1]   --> A''             I+R
     freq (  24-  24) =        304.8  [cm-1]   --> A''             I+R
     freq (  25-  25) =        306.7  [cm-1]   --> A''             I+R
     freq (  26-  26) =        320.8  [cm-1]   --> A''             I+R
     freq (  27-  27) =        325.7  [cm-1]   --> A''             I+R
     freq (  28-  28) =        331.9  [cm-1]   --> A'              I+R
     freq (  29-  29) =        337.4  [cm-1]   --> A'              I+R
     freq (  30-  30) =        338.0  [cm-1]   --> A'              I+R
     freq (  31-  31) =        340.5  [cm-1]   --> A'              I+R
     freq (  32-  32) =        341.4  [cm-1]   --> A'              I+R
     freq (  33-  33) =        342.2  [cm-1]   --> A'              I+R
     freq (  34-  34) =        516.6  [cm-1]   --> A'              I+R
     freq (  35-  35) =        517.3  [cm-1]   --> A'              I+R
     freq (  36-  36) =        521.6  [cm-1]   --> A'              I+R
     freq (  37-  37) =        521.7  [cm-1]   --> A'              I+R
     freq (  38-  38) =        522.8  [cm-1]   --> A'              I+R
     freq (  39-  39) =        532.3  [cm-1]   --> A'              I+R
     freq (  40-  40) =        564.6  [cm-1]   --> A''             I+R
     freq (  41-  41) =        567.4  [cm-1]   --> A'              I+R
     freq (  42-  42) =        569.9  [cm-1]   --> A'              I+R
     freq (  43-  43) =        571.0  [cm-1]   --> A''             I+R
     freq (  44-  44) =        571.2  [cm-1]   --> A'              I+R
     freq (  45-  45) =        574.4  [cm-1]   --> A'              I+R
     freq (  46-  46) =        576.7  [cm-1]   --> A'              I+R
     freq (  47-  47) =        579.3  [cm-1]   --> A'              I+R
     freq (  48-  48) =        601.3  [cm-1]   --> A''             I+R
     freq (  49-  49) =        604.9  [cm-1]   --> A'              I+R
     freq (  50-  50) =        607.0  [cm-1]   --> A'              I+R
     freq (  51-  51) =        607.2  [cm-1]   --> A''             I+R
     freq (  52-  52) =        607.5  [cm-1]   --> A'              I+R
     freq (  53-  53) =        608.7  [cm-1]   --> A''             I+R
     freq (  54-  54) =        611.4  [cm-1]   --> A''             I+R
     freq (  55-  55) =        611.6  [cm-1]   --> A'              I+R
     freq (  56-  56) =        618.9  [cm-1]   --> A'              I+R
     freq (  57-  57) =        619.9  [cm-1]   --> A'              I+R
     freq (  58-  58) =        638.7  [cm-1]   --> A''             I+R
     freq (  59-  59) =        653.6  [cm-1]   --> A''             I+R
     freq (  60-  60) =        656.5  [cm-1]   --> A''             I+R
     freq (  61-  61) =        659.8  [cm-1]   --> A''             I+R
     freq (  62-  62) =        662.2  [cm-1]   --> A''             I+R
     freq (  63-  63) =        662.9  [cm-1]   --> A''             I+R
     freq (  64-  64) =        683.4  [cm-1]   --> A''             I+R
     freq (  65-  65) =        684.8  [cm-1]   --> A''             I+R
     freq (  66-  66) =        688.0  [cm-1]   --> A''             I+R
     freq (  67-  67) =        688.2  [cm-1]   --> A''             I+R
     freq (  68-  68) =        691.1  [cm-1]   --> A''             I+R
     freq (  69-  69) =        694.6  [cm-1]   --> A''             I+R
     freq (  70-  70) =        735.4  [cm-1]   --> A'              I+R
     freq (  71-  71) =        736.6  [cm-1]   --> A'              I+R
     freq (  72-  72) =        739.9  [cm-1]   --> A'              I+R
     freq (  73-  73) =        744.7  [cm-1]   --> A'              I+R
     freq (  74-  74) =        746.9  [cm-1]   --> A'              I+R
     freq (  75-  75) =        750.0  [cm-1]   --> A'              I+R
     freq (  76-  76) =        756.4  [cm-1]   --> A''             I+R
     freq (  77-  77) =        758.3  [cm-1]   --> A''             I+R
     freq (  78-  78) =        758.6  [cm-1]   --> A''             I+R
     freq (  79-  79) =        759.7  [cm-1]   --> A''             I+R
     freq (  80-  80) =        759.9  [cm-1]   --> A''             I+R
     freq (  81-  81) =        776.2  [cm-1]   --> A''             I+R
     freq (  82-  82) =        805.7  [cm-1]   --> A''             I+R
     freq (  83-  83) =        841.2  [cm-1]   --> A'              I+R
     freq (  84-  84) =        844.6  [cm-1]   --> A'              I+R
     freq (  85-  85) =        848.2  [cm-1]   --> A'              I+R
     freq (  86-  86) =        853.2  [cm-1]   --> A'              I+R
     freq (  87-  87) =        856.2  [cm-1]   --> A'              I+R
     freq (  88-  88) =        859.5  [cm-1]   --> A'              I+R
     freq (  89-  89) =       1013.0  [cm-1]   --> A'              I+R
     freq (  90-  90) =       1016.1  [cm-1]   --> A'              I+R
     freq (  91-  91) =       1018.1  [cm-1]   --> A'              I+R
     freq (  92-  92) =       1030.1  [cm-1]   --> A'              I+R
     freq (  93-  93) =       1031.8  [cm-1]   --> A'              I+R
     freq (  94-  94) =       1037.1  [cm-1]   --> A'              I+R
     freq (  95-  95) =       1079.5  [cm-1]   --> A'              I+R
     freq (  96-  96) =       1081.6  [cm-1]   --> A'              I+R
     freq (  97-  97) =       1082.4  [cm-1]   --> A'              I+R
     freq (  98-  98) =       1091.9  [cm-1]   --> A'              I+R
     freq (  99-  99) =       1093.1  [cm-1]   --> A'              I+R
     freq ( 100- 100) =       1104.1  [cm-1]   --> A'              I+R
     freq ( 101- 101) =       1182.0  [cm-1]   --> A'              I+R
     freq ( 102- 102) =       1204.9  [cm-1]   --> A'              I+R
     freq ( 103- 103) =       1206.3  [cm-1]   --> A'              I+R
     freq ( 104- 104) =       1208.7  [cm-1]   --> A'              I+R
     freq ( 105- 105) =       1211.0  [cm-1]   --> A'              I+R
     freq ( 106- 106) =       1212.5  [cm-1]   --> A'              I+R
     freq ( 107- 107) =       1231.8  [cm-1]   --> A'              I+R
     freq ( 108- 108) =       1234.4  [cm-1]   --> A'              I+R
     freq ( 109- 109) =       1236.0  [cm-1]   --> A'              I+R
     freq ( 110- 110) =       1237.0  [cm-1]   --> A'              I+R
     freq ( 111- 111) =       1239.1  [cm-1]   --> A'              I+R
     freq ( 112- 112) =       1240.8  [cm-1]   --> A'              I+R
     freq ( 113- 113) =       1246.2  [cm-1]   --> A'              I+R
     freq ( 114- 114) =       1248.6  [cm-1]   --> A'              I+R
     freq ( 115- 115) =       1251.4  [cm-1]   --> A'              I+R
     freq ( 116- 116) =       1253.1  [cm-1]   --> A'              I+R
     freq ( 117- 117) =       1253.7  [cm-1]   --> A'              I+R
     freq ( 118- 118) =       1255.1  [cm-1]   --> A'              I+R
     freq ( 119- 119) =       1259.9  [cm-1]   --> A'              I+R
     freq ( 120- 120) =       1260.9  [cm-1]   --> A'              I+R
     freq ( 121- 121) =       1266.3  [cm-1]   --> A'              I+R
     freq ( 122- 122) =       1270.8  [cm-1]   --> A'              I+R
     freq ( 123- 123) =       1276.7  [cm-1]   --> A'              I+R
     freq ( 124- 124) =       1281.4  [cm-1]   --> A'              I+R
     freq ( 125- 125) =       1295.8  [cm-1]   --> A'              I+R
     freq ( 126- 126) =       1297.9  [cm-1]   --> A'              I+R
     freq ( 127- 127) =       1305.6  [cm-1]   --> A'              I+R
     freq ( 128- 128) =       1311.1  [cm-1]   --> A'              I+R
     freq ( 129- 129) =       1318.8  [cm-1]   --> A'              I+R
     freq ( 130- 130) =       1324.3  [cm-1]   --> A'              I+R
     freq ( 131- 131) =       1335.6  [cm-1]   --> A'              I+R
     freq ( 132- 132) =       1346.2  [cm-1]   --> A'              I+R
     freq ( 133- 133) =       1354.7  [cm-1]   --> A'              I+R
     freq ( 134- 134) =       1355.6  [cm-1]   --> A'              I+R
     freq ( 135- 135) =       1362.6  [cm-1]   --> A'              I+R
     freq ( 136- 136) =       1367.9  [cm-1]   --> A'              I+R
     freq ( 137- 137) =       1373.8  [cm-1]   --> A'              I+R
     freq ( 138- 138) =       1377.8  [cm-1]   --> A'              I+R
     freq ( 139- 139) =       1386.8  [cm-1]   --> A'              I+R
     freq ( 140- 140) =       1392.7  [cm-1]   --> A'              I+R
     freq ( 141- 141) =       1394.3  [cm-1]   --> A'              I+R
     freq ( 142- 142) =       1396.4  [cm-1]   --> A'              I+R
     freq ( 143- 143) =       1410.9  [cm-1]   --> A'              I+R
     freq ( 144- 144) =       1426.4  [cm-1]   --> A'              I+R
     freq ( 145- 145) =       1477.9  [cm-1]   --> A'              I+R
     freq ( 146- 146) =       1485.9  [cm-1]   --> A'              I+R
     freq ( 147- 147) =       1486.3  [cm-1]   --> A'              I+R
     freq ( 148- 148) =       1487.4  [cm-1]   --> A'              I+R
     freq ( 149- 149) =       1490.4  [cm-1]   --> A'              I+R
     freq ( 150- 150) =       1496.7  [cm-1]   --> A'              I+R

     INITIALIZATION:

     DYNAMICAL MATRIX:

      General routines

   This run was terminated on:   5: 5: 1   1Dec2022

   JOB DONE.