     Program PWSCF v.6.8 starts on 12Oct2022 at 14: 8:15

     R & G space division:  proc/nbgrp/npool/nimage =      64

     Waiting for input...
     Reading input from standard input

     Current dimensions of program PWSCF are:
     Max number of different atomic species (ntypx) = 10
     Max number of k-points (npk) =  40000
     Max angular momentum in pseudopotentials (lmaxx) =  4
     file N.pbe-n-kjpaw_psl.1.0.0.UPF: wavefunction(s)  2S renormalized
     file C.pbe-n-kjpaw_psl.1.0.0.UPF: wavefunction(s)  2S 2P renormalized

     Using Slab Decomposition

     bravais-lattice index     =            4
     lattice parameter (alat)  =      23.7646  a.u.
     unit-cell volume          =   13863.8211 (a.u.)^3
     number of atoms/cell      =           50
     number of atomic types    =            3
     number of electrons       =       199.00
     number of Kohn-Sham states=          120
     kinetic-energy cutoff     =      60.0000  Ry
     charge density cutoff     =     240.0000  Ry
     scf convergence threshold =      1.0E-12
     mixing beta               =       0.7000
     number of iterations used =            8  plain     mixing
     energy convergence thresh.=      1.0E-04
     force convergence thresh. =      1.9E-10
     press convergence thresh. =      5.0E-01
     Exchange-correlation= SLA  PW   PBX  PBC
                           (   1   4   3   4   0   0   0)
     nstep                     =         2000

     celldm(1)=  23.764638  celldm(2)=   0.000000  celldm(3)=   1.192775
     celldm(4)=   0.000000  celldm(5)=   0.000000  celldm(6)=   0.000000

     crystal axes: (cart. coord. in units of alat)
               a(1) = (   1.000000   0.000000   0.000000 )
               a(2) = (  -0.500000   0.866025   0.000000 )
               a(3) = (   0.000000   0.000000   1.192775 )

     reciprocal axes: (cart. coord. in units 2 pi/alat)
               b(1) = (  1.000000  0.577350  0.000000 )
               b(2) = (  0.000000  1.154701  0.000000 )
               b(3) = (  0.000000  0.000000  0.838381 )

     PseudoPot. # 1 for B  read from file:
     ./pseudo/B.pbe-n-kjpaw_psl.1.0.0.UPF
     MD5 check sum: 8c825a5969375aca5c2c6ad5945b3059
     Pseudo is Projector augmented-wave + core cor, Zval =  3.0
     Generated using &quot;atomic&quot; code by A. Dal Corso  v.6.3
     Shape of augmentation charge: PSQ
     Using radial grid of 1059 points,  4 beta functions with:
                l(1) =   0
                l(2) =   0
                l(3) =   1
                l(4) =   1
     Q(r) pseudized with 0 coefficients

     PseudoPot. # 2 for N  read from file:
     ./pseudo/N.pbe-n-kjpaw_psl.1.0.0.UPF
     MD5 check sum: 14c48229446f9f2d411169a3abcbc3fa
     Pseudo is Projector augmented-wave + core cor, Zval =  5.0
     Generated using &quot;atomic&quot; code by A. Dal Corso  v.6.3
     Shape of augmentation charge: PSQ
     Using radial grid of 1085 points,  4 beta functions with:
                l(1) =   0
                l(2) =   0
                l(3) =   1
                l(4) =   1
     Q(r) pseudized with 0 coefficients

     PseudoPot. # 3 for C  read from file:
     ./pseudo/C.pbe-n-kjpaw_psl.1.0.0.UPF
     MD5 check sum: 5f16ad9a65e90284d1d834d4ab3b0f7d
     Pseudo is Projector augmented-wave + core cor, Zval =  4.0
     Generated using &quot;atomic&quot; code by A. Dal Corso  v.6.3
     Shape of augmentation charge: PSQ
     Using radial grid of 1073 points,  4 beta functions with:
                l(1) =   0
                l(2) =   0
                l(3) =   1
                l(4) =   1
     Q(r) pseudized with 0 coefficients

     atomic species   valence    mass     pseudopotential
        B              3.00    10.81100     B ( 1.00)
        N              5.00    14.00670     N ( 1.00)
        C              4.00    12.01070     C ( 1.00)

      4 Sym. Ops. (no inversion) found

   Cartesian axes

     site n.     atom                  positions (alat units)
         1           B   tau(   1) = (   0.0000005   0.1154698   0.5963877  )
         2           B   tau(   2) = (  -0.0999995   0.2886748   0.5963877  )
         3           B   tau(   3) = (  -0.1999995   0.4618799   0.5963877  )
         4           B   tau(   4) = (  -0.2999995   0.6350850   0.5963877  )
         5           B   tau(   5) = (  -0.3999995   0.8082901   0.5963877  )
         6           B   tau(   6) = (   0.2000005   0.1154698   0.5963877  )
         7           B   tau(   7) = (   0.1000005   0.2886748   0.5963877  )
         8           B   tau(   8) = (   0.0000005   0.4618799   0.5963877  )
         9           B   tau(   9) = (  -0.0999995   0.6350850   0.5963877  )
        10           B   tau(  10) = (  -0.1999995   0.8082901   0.5963877  )
        11           B   tau(  11) = (   0.4000005   0.1154698   0.5963877  )
        12           B   tau(  12) = (   0.3000005   0.2886748   0.5963877  )
        13           C   tau(  13) = (   0.2000005   0.4618799   0.5963877  )
        14           B   tau(  14) = (   0.1000005   0.6350850   0.5963877  )
        15           B   tau(  15) = (   0.0000005   0.8082901   0.5963877  )
        16           B   tau(  16) = (   0.6000005   0.1154698   0.5963877  )
        17           B   tau(  17) = (   0.5000005   0.2886748   0.5963877  )
        18           B   tau(  18) = (   0.4000005   0.4618799   0.5963877  )
        19           B   tau(  19) = (   0.3000005   0.6350850   0.5963877  )
        20           B   tau(  20) = (   0.2000005   0.8082901   0.5963877  )
        21           B   tau(  21) = (   0.8000005   0.1154698   0.5963877  )
        22           B   tau(  22) = (   0.7000005   0.2886748   0.5963877  )
        23           B   tau(  23) = (   0.6000005   0.4618799   0.5963877  )
        24           B   tau(  24) = (   0.5000005   0.6350850   0.5963877  )
        25           B   tau(  25) = (   0.4000005   0.8082901   0.5963877  )
        26           N   tau(  26) = (   0.0999995   0.0577353   0.5963877  )
        27           N   tau(  27) = (  -0.0000005   0.2309404   0.5963877  )
        28           N   tau(  28) = (  -0.1000005   0.4041455   0.5963877  )
        29           N   tau(  29) = (  -0.2000005   0.5773506   0.5963877  )
        30           N   tau(  30) = (  -0.3000005   0.7505556   0.5963877  )
        31           N   tau(  31) = (   0.2999995   0.0577353   0.5963877  )
        32           N   tau(  32) = (   0.1999995   0.2309404   0.5963877  )
        33           C   tau(  33) = (   0.0999995   0.4041455   0.5963877  )
        34           N   tau(  34) = (  -0.0000005   0.5773506   0.5963877  )
        35           N   tau(  35) = (  -0.1000005   0.7505556   0.5963877  )
        36           N   tau(  36) = (   0.4999995   0.0577353   0.5963877  )
        37           N   tau(  37) = (   0.3999995   0.2309404   0.5963877  )
        38           N   tau(  38) = (   0.2999995   0.4041455   0.5963877  )
        39           C   tau(  39) = (   0.1999995   0.5773506   0.5963877  )
        40           N   tau(  40) = (   0.0999995   0.7505556   0.5963877  )
        41           N   tau(  41) = (   0.6999995   0.0577353   0.5963877  )
        42           N   tau(  42) = (   0.5999995   0.2309404   0.5963877  )
        43           N   tau(  43) = (   0.4999995   0.4041455   0.5963877  )
        44           N   tau(  44) = (   0.3999995   0.5773506   0.5963877  )
        45           N   tau(  45) = (   0.2999995   0.7505556   0.5963877  )
        46           N   tau(  46) = (   0.8999995   0.0577353   0.5963877  )
        47           N   tau(  47) = (   0.7999995   0.2309404   0.5963877  )
        48           N   tau(  48) = (   0.6999995   0.4041455   0.5963877  )
        49           N   tau(  49) = (   0.5999995   0.5773506   0.5963877  )
        50           N   tau(  50) = (   0.4999995   0.7505556   0.5963877  )

     number of k points=     3  Methfessel-Paxton smearing, width (Ry)=  0.0100
                       cart. coord. in units 2pi/alat
        k(    1) = (   0.0000000   0.0000000   0.0000000), wk =   0.5000000
        k(    2) = (   0.0000000  -0.5773503   0.0000000), wk =   1.0000000
        k(    3) = (   0.5000000  -0.2886751   0.0000000), wk =   0.5000000

     Check: negative core charge=   -0.000007

     Initial potential from superposition of free atoms

     starting charge  198.99293, renormalised to  199.00000

     negative rho (up, down):  7.935E-03 0.000E+00
     Starting wfcs are  200 randomized atomic wfcs
     Checking if some PAW data can be deallocated...

     Self-consistent Calculation

     iteration #  1     ecut=    60.00 Ry     beta= 0.70
     CG style diagonalization
     ethr =  1.00E-02,  avg # of iterations =  3.0

     negative rho (up, down):  1.118E-02 0.000E+00

     total energy              =    -979.99012604 Ry
     estimated scf accuracy    <       9.97410851 Ry

[...]

     iteration #  4     ecut=    60.00 Ry     beta= 0.70
     CG style diagonalization
     c_bands:  2 eigenvalues not converged
     c_bands:  2 eigenvalues not converged
     c_bands:  4 eigenvalues not converged
     ethr =  1.56E-04,  avg # of iterations =  4.9

[...]

     End of self-consistent calculation

          k = 0.0000 0.0000 0.0000 (108987 PWs)   bands (ev):

   -23.4790 -23.0319 -22.7563 -22.7376 -22.6767 -22.5353 -22.4147 -21.6467
   -21.3767 -21.3727 -21.3444 -21.2172 -21.2126 -21.0235 -20.9165 -20.9034
   -20.7945 -20.5399 -20.4804 -20.1186 -20.1133 -20.0621 -20.0202 -18.6510
   -16.8812 -14.8434 -14.2746 -14.2567 -14.2022 -14.1685 -14.1506 -14.0161
   -13.9048 -13.8431 -13.7980 -13.7152 -13.5467 -12.4236 -12.3541 -12.3390
   -12.2722 -12.0947 -12.0652 -11.8984 -11.7588 -11.7118 -11.6791 -11.6247
   -11.4941 -11.0363 -10.7122 -10.5913 -10.5831 -10.4820 -10.4655 -10.3827
   -10.1940 -10.0811 -10.0667 -10.0072  -9.9839  -9.9109  -9.8798  -9.8586
    -9.8267  -9.8265  -9.7929  -9.7822  -9.7586  -9.6977  -9.5552  -9.5275
    -9.3125  -9.1204  -8.4324  -8.4016  -8.3962  -8.3269  -8.2147  -8.1968
    -8.1749  -8.1695  -8.0841  -8.0477  -7.9425  -7.7795  -7.6310  -7.5339
    -7.5126  -7.4361  -7.3148  -7.1728  -6.8357  -6.7955  -6.3206  -6.2963
    -6.2404  -6.2399  -5.9580  -5.1818  -1.9186  -1.1478  -1.0633  -1.0490
    -1.0145  -1.0107  -0.8986  -0.3185  -0.2401  -0.0624  -0.0527  -0.0211
     0.0388   0.0568   0.0697   0.0740   0.1220   0.1502   0.1592   0.2159

[...]

     the Fermi energy is    -5.2232 ev

!    total energy              =    -983.45981256 Ry

     total all-electron energy =     -3944.368798 Ry
     estimated scf accuracy    <          2.5E-13 Ry
     smearing contrib. (-TS)   =      -0.00242639 Ry
     internal energy E=F+TS    =    -983.45738617 Ry

     The total energy is F=E-TS. E is the sum of the following terms:
     one-electron contribution =   -6176.39968856 Ry
     hartree contribution      =    3119.05691794 Ry
     xc contribution           =    -219.35141726 Ry
     ewald contribution        =    2620.12010063 Ry
     one-center paw contrib.   =    -326.88329892 Ry

     convergence has been achieved in  18 iterations

[...]

     Forces acting on atoms (cartesian axes, Ry/au):

[...]
     Cell gradient error     =      4.5E+00 kbar

[...]

     enthalpy           old  =    -983.4598125574 Ry
     enthalpy           new  =    -983.4816351715 Ry

     CASE: enthalpy          _new < enthalpy          _old

[...]

     iteration #  1     ecut=    60.00 Ry     beta= 0.70
     CG style diagonalization
     c_bands:  1 eigenvalues not converged
     c_bands:  1 eigenvalues not converged
     ethr =  1.00E-06,  avg # of iterations =  4.8

[...]

     Threshold (ethr) on eigenvalues was too large:
     Diagonalizing with lowered threshold

     CG style diagonalization
     ethr =  7.29E-09,  avg # of iterations = 13.5

[...]

     CG style diagonalization
     c_bands:  5 eigenvalues not converged
     ethr =  6.02E-09,  avg # of iterations = 10.3

[...]

     CG style diagonalization
     c_bands:  4 eigenvalues not converged
     c_bands:  1 eigenvalues not converged
     ethr =  2.37E-10,  avg # of iterations =  9.0

[...]

     small trust_radius: resetting bfgs history

[...]

     Energy error            =      1.0E-08 Ry
     Gradient error          =      2.6E-05 Ry/Bohr
     Cell gradient error     =      6.1E-03 kbar

     number of scf cycles    =  15
     number of bfgs steps    =  14

     enthalpy           old  =    -983.4976643921 Ry
     enthalpy           new  =    -983.4976644022 Ry

     CASE: enthalpy          _new < enthalpy          _old

     Message from routine bfgs :: compute_trust_radius:
     history already reset at previous step: stopping
     small trust_radius: resetting bfgs history

     new trust radius        =       0.0000329865 bohr
     new conv_thr            =            1.0E-14 Ry

     new unit-cell volume =  13935.12223 a.u.^3 (  2064.97207 Ang^3 )
     density =      0.49668 g/cm^3

[...]

ATOMIC_POSITIONS (crystal)
B             0.0663070357        0.1328279546        0.5000000000
B             0.0673452444        0.3336180249        0.5000000000
B             0.0660603226        0.5336045685        0.5000000000
B             0.0663836155        0.7335443652        0.5000000000
B             0.0667246254        0.9332753746        0.5000000000
B             0.2663368429        0.1316294743        0.5000000000
B             0.2661010393        0.3295337115        0.5000000000
B             0.2667496195        0.5370323070        0.5000000000
B             0.2650122899        0.7349877101        0.5000000000
B             0.2664556348        0.9336163845        0.5000000000
B             0.4667770035        0.1336851140        0.5000000000
B             0.4660207333        0.3329833373        0.5000000000
C             0.4677375405        0.5322624595        0.5000000000
B             0.4629676930        0.7332503805        0.5000000000
B             0.4663954315        0.9339396774        0.5000000000
B             0.6666855380        0.1332663247        0.5000000000
B             0.6667096018        0.3332903982        0.5000000000
B             0.6670166627        0.5339792667        0.5000000000
B             0.6704662885        0.7338989607        0.5000000000
B             0.6663819751        0.9326547556        0.5000000000
B             0.8667752084        0.1332247916        0.5000000000
B             0.8667336753        0.3333144620        0.5000000000
B             0.8663148860        0.5332229965        0.5000000000
B             0.8683705257        0.7336631571        0.5000000000
B             0.8671720454        0.9336929643        0.5000000000
N             0.1332176748        0.0662826852        0.5000000000
N             0.1328648775        0.2654566651        0.5000000000
N             0.1331757264        0.4675371994        0.5000000000
N             0.1321214873        0.6669658176        0.5000000000
N             0.1331727555        0.8668272445        0.5000000000
N             0.3334823364        0.0663794890        0.5000000000
N             0.3330674179        0.2641540843        0.5000000000
C             0.3386813069        0.4683509902        0.5000000000
N             0.3306172630        0.6693827370        0.5000000000
N             0.3330341824        0.8678785127        0.5000000000
N             0.5334393655        0.0672899358        0.5000000000
N             0.5334882831        0.2672789227        0.5000000000
N             0.5327250849        0.4672749151        0.5000000000
C             0.5316490098        0.6613186931        0.5000000000
N             0.5324628006        0.8668242736        0.5000000000
N             0.7331792202        0.0662670919        0.5000000000
N             0.7333722439        0.2666277561        0.5000000000
N             0.7327210773        0.4665117169        0.5000000000
N             0.7358459157        0.6669325821        0.5000000000
N             0.7345433349        0.8671351225        0.5000000000
N             0.9333567592        0.0666432408        0.5000000000
N             0.9337329081        0.2668207798        0.5000000000
N             0.9327100642        0.4665606345        0.5000000000
N             0.9336205110        0.6665176636        0.5000000000
N             0.9337173148        0.8667823252        0.5000000000

     Writing output data file ./TMP_DIR/hBN.save/
     NEW-OLD atomic charge density approx. for the potential

     Check: negative core charge=   -0.000007

     negative rho (up, down):  1.594E-02 0.000E+00
     extrapolated charge  198.99987, renormalised to  199.00000

     Self-consistent Calculation

[...]

     Threshold (ethr) on eigenvalues was too large:
     Diagonalizing with lowered threshold

     CG style diagonalization
     ethr =  6.58E-13,  avg # of iterations = 15.4

[...]

     total energy              =    -983.49766440 Ry
     estimated scf accuracy    <          1.7E-14 Ry

     iteration # 10     ecut=    60.00 Ry     beta= 0.70
     CG style diagonalization
     ethr =  1.00E-13,  avg # of iterations =  3.0

[...]

     End of self-consistent calculation

[...]

          k =-0.0004-0.5761 0.0000 (108768 PWs)   bands (ev):

[...]

          k = 0.4983-0.2877 0.0000 (108768 PWs)   bands (ev):

   -23.4168 -23.1492 -23.0118 -22.8276 -22.4268 -22.1790 -22.0803 -22.0080
   -21.9105 -21.5658 -21.3646 -21.2867 -21.2142 -20.9799 -20.5867 -20.5322
   -20.4893 -20.4847 -20.4738 -20.4393 -20.4149 -20.0977 -19.9946 -18.7296
   -16.6830 -14.8841 -14.4206 -14.3797 -14.3674 -14.2375 -13.8591 -13.7367
   -13.7318 -13.5827 -13.4937 -13.4867 -13.0152 -12.9725 -12.8772 -12.7298
   -12.7198 -12.4445 -12.0669 -11.8864 -11.5874 -11.4998 -11.3930 -11.3596
   -11.0630 -10.9668 -10.8936 -10.8452 -10.8105 -10.6754 -10.4894 -10.4302
   -10.4226 -10.3521 -10.3101 -10.2285 -10.0677 -10.0554  -9.9988  -9.9747
    -9.5381  -9.4647  -9.3803  -9.3250  -9.2572  -9.2386  -9.2223  -9.1767
    -9.1498  -9.1316  -9.0029  -8.9628  -8.9070  -8.6903  -8.6010  -8.2201
    -8.1727  -8.0621  -8.0030  -7.9977  -7.9144  -7.7437  -7.5819  -7.0984
    -7.0270  -6.9611  -6.9193  -6.9081  -6.8805  -6.8367  -6.8330  -6.7946
    -6.4852  -6.3795  -5.9651  -4.9840  -1.6591  -1.0560  -1.0474  -0.9078
    -0.8682  -0.8010  -0.7841  -0.7546  -0.7139  -0.3533  -0.2648  -0.2570
    -0.1986  -0.1898  -0.1566   0.0242   0.0835   0.6040   0.6269   0.7501

     the Fermi energy is    -4.9947 ev

!    total energy              =    -983.49766440 Ry

     total all-electron energy =     -3944.406650 Ry
     estimated scf accuracy    <          1.8E-15 Ry
     smearing contrib. (-TS)   =      -0.00250678 Ry
     internal energy E=F+TS    =    -983.49515762 Ry

     The total energy is F=E-TS. E is the sum of the following terms:
     one-electron contribution =   -6146.41788404 Ry
     hartree contribution      =    3103.94240433 Ry
     xc contribution           =    -219.12040697 Ry
     ewald contribution        =    2604.97708390 Ry
     one-center paw contrib.   =    -326.87635484 Ry

     convergence has been achieved in  10 iterations

     negative rho (up, down):  1.594E-02 0.000E+00

     Forces acting on atoms (cartesian axes, Ry/au):

     atom    1 type  1   force =    -0.00001315   -0.00000711    0.00000000
     atom    2 type  1   force =     0.00000739   -0.00000398    0.00000000
     atom    3 type  1   force =    -0.00000009    0.00001112    0.00000000
     atom    4 type  1   force =     0.00000307    0.00000474    0.00000000
     atom    5 type  1   force =    -0.00000391    0.00000226    0.00000000
     atom    6 type  1   force =    -0.00001207   -0.00000586    0.00000000
     atom    7 type  1   force =    -0.00000637   -0.00000016    0.00000000
     atom    8 type  1   force =     0.00000009    0.00000461    0.00000000
     atom    9 type  1   force =    -0.00000444    0.00000256    0.00000000
     atom   10 type  1   force =    -0.00000257   -0.00000503    0.00000000
     atom   11 type  1   force =     0.00000447   -0.00000419    0.00000000
     atom   12 type  1   force =    -0.00001106    0.00000187    0.00000000
     atom   13 type  3   force =    -0.00000010    0.00000006    0.00000000
     atom   14 type  1   force =    -0.00000395   -0.00000239    0.00000000
     atom   15 type  1   force =    -0.00000967   -0.00000548    0.00000000
     atom   16 type  1   force =     0.00001757   -0.00000550    0.00000000
     atom   17 type  1   force =    -0.00000441    0.00000254    0.00000000
     atom   18 type  1   force =    -0.00000715    0.00000864    0.00000000
     atom   19 type  1   force =    -0.00000305    0.00000560    0.00000000
     atom   20 type  1   force =     0.00000714   -0.00000441    0.00000000
     atom   21 type  1   force =     0.00001632   -0.00000942    0.00000000
     atom   22 type  1   force =     0.00001355   -0.00001247    0.00000000
     atom   23 type  1   force =     0.00000586   -0.00000178    0.00000000
     atom   24 type  1   force =    -0.00000096    0.00001338    0.00000000
     atom   25 type  1   force =    -0.00000042    0.00001494    0.00000000
     atom   26 type  2   force =     0.00001456   -0.00000112    0.00000000
     atom   27 type  2   force =     0.00000722    0.00001479    0.00000000
     atom   28 type  2   force =    -0.00000942    0.00000242    0.00000000
     atom   29 type  2   force =    -0.00000824   -0.00000391    0.00000000
     atom   30 type  2   force =    -0.00000145    0.00000084    0.00000000
     atom   31 type  2   force =     0.00001010    0.00001053    0.00000000
     atom   32 type  2   force =     0.00001145   -0.00000426    0.00000000
     atom   33 type  3   force =    -0.00000583   -0.00000107    0.00000000
     atom   34 type  2   force =     0.00000418   -0.00000241    0.00000000
     atom   35 type  2   force =    -0.00000074    0.00000909    0.00000000
     atom   36 type  2   force =     0.00000766    0.00000767    0.00000000
     atom   37 type  2   force =     0.00000443   -0.00000193    0.00000000
     atom   38 type  2   force =     0.00000419   -0.00000242    0.00000000
     atom   39 type  3   force =    -0.00000199    0.00000558    0.00000000
     atom   40 type  2   force =    -0.00000680    0.00000695    0.00000000
     atom   41 type  2   force =    -0.00001151   -0.00000150    0.00000000
     atom   42 type  2   force =    -0.00000896    0.00000517    0.00000000
     atom   43 type  2   force =     0.00000389   -0.00000287    0.00000000
     atom   44 type  2   force =     0.00000941   -0.00000779    0.00000000
     atom   45 type  2   force =    -0.00000920   -0.00001364    0.00000000
     atom   46 type  2   force =    -0.00000198    0.00000114    0.00000000
     atom   47 type  2   force =    -0.00000445    0.00001072    0.00000000
     atom   48 type  2   force =    -0.00000281   -0.00001047    0.00000000
     atom   49 type  2   force =    -0.00000407   -0.00001401    0.00000000
     atom   50 type  2   force =     0.00000825   -0.00001205    0.00000000

     Total force =     0.000075     Total SCF correction =     0.000000

     Computing stress (Cartesian axis) and pressure

     negative rho (up, down):  1.594E-02 0.000E+00
          total   stress  (Ry/bohr**3)                   (kbar)     P=       -0.18
  -0.00000003   0.00000003   0.00000000           -0.00        0.00        0.00
   0.00000003   0.00000001   0.00000000            0.00        0.00        0.00
   0.00000000   0.00000000  -0.00000375            0.00        0.00       -0.55

     Message from routine bfgs:
     history already reset at previous step: exiting
     Energy error            =      2.7E-09 Ry
     Gradient error          =      1.8E-05 Ry/Bohr
     Cell gradient error     =      4.7E-03 kbar

     bfgs converged in  16 scf cycles and  15 bfgs steps
     (criteria: energy <  1.0E-04 Ry, force <  1.9E-10Ry/Bohr, cell <  5.0E-01kbar)

     End of BFGS Geometry Optimization

     Final enthalpy           =    -983.4976644049 Ry

     File ./TMP_DIR/hBN.bfgs deleted, as requested
Begin final coordinates
     new unit-cell volume =  13935.12223 a.u.^3 (  2064.97207 Ang^3 )
     density =      0.49668 g/cm^3

CELL_PARAMETERS (alat= 23.76463845)
   1.002941383  -0.000645921   0.000000000
  -0.502030075   0.868249756   0.000000000
   0.000000000   0.000000000   1.192775420

ATOMIC_POSITIONS (crystal)
B             0.0663070357        0.1328279546        0.5000000000
B             0.0673452444        0.3336180249        0.5000000000
B             0.0660603226        0.5336045685        0.5000000000
B             0.0663836155        0.7335443652        0.5000000000
B             0.0667246254        0.9332753746        0.5000000000
B             0.2663368429        0.1316294743        0.5000000000
B             0.2661010393        0.3295337115        0.5000000000
B             0.2667496195        0.5370323070        0.5000000000
B             0.2650122899        0.7349877101        0.5000000000
B             0.2664556348        0.9336163845        0.5000000000
B             0.4667770035        0.1336851140        0.5000000000
B             0.4660207333        0.3329833373        0.5000000000
C             0.4677375405        0.5322624595        0.5000000000
B             0.4629676930        0.7332503805        0.5000000000
B             0.4663954315        0.9339396774        0.5000000000
B             0.6666855380        0.1332663247        0.5000000000
B             0.6667096018        0.3332903982        0.5000000000
B             0.6670166627        0.5339792667        0.5000000000
B             0.6704662885        0.7338989607        0.5000000000
B             0.6663819751        0.9326547556        0.5000000000
B             0.8667752084        0.1332247916        0.5000000000
B             0.8667336753        0.3333144620        0.5000000000
B             0.8663148860        0.5332229965        0.5000000000
B             0.8683705257        0.7336631571        0.5000000000
B             0.8671720454        0.9336929643        0.5000000000
N             0.1332176748        0.0662826852        0.5000000000
N             0.1328648775        0.2654566651        0.5000000000
N             0.1331757264        0.4675371994        0.5000000000
N             0.1321214873        0.6669658176        0.5000000000
N             0.1331727555        0.8668272445        0.5000000000
N             0.3334823364        0.0663794890        0.5000000000
N             0.3330674179        0.2641540843        0.5000000000
C             0.3386813069        0.4683509902        0.5000000000
N             0.3306172630        0.6693827370        0.5000000000
N             0.3330341824        0.8678785127        0.5000000000
N             0.5334393655        0.0672899358        0.5000000000
N             0.5334882831        0.2672789227        0.5000000000
N             0.5327250849        0.4672749151        0.5000000000
C             0.5316490098        0.6613186931        0.5000000000
N             0.5324628006        0.8668242736        0.5000000000
N             0.7331792202        0.0662670919        0.5000000000
N             0.7333722439        0.2666277561        0.5000000000
N             0.7327210773        0.4665117169        0.5000000000
N             0.7358459157        0.6669325821        0.5000000000
N             0.7345433349        0.8671351225        0.5000000000
N             0.9333567592        0.0666432408        0.5000000000
N             0.9337329081        0.2668207798        0.5000000000
N             0.9327100642        0.4665606345        0.5000000000
N             0.9336205110        0.6665176636        0.5000000000
N             0.9337173148        0.8667823252        0.5000000000
End final coordinates

     Writing output data file ./TMP_DIR/hBN.save/

     Writing output data file ./TMP_DIR/hBN.save/

     General routines

     Parallel routines

   This run was terminated on:  15:25:48  12Oct2022

   JOB DONE.