     Program PHONON v.6.8 starts on 15Dec2022 at 18:24:55

     R & G space division:  proc/nbgrp/npool/nimage =      64

     Waiting for input...
     Reading input from standard input
     Run is not recoverable starting from scratch

     Reading xml data from directory:

     ./TMP_DIR/hBN.save/
     file N.pbe-n-kjpaw_psl.1.0.0.UPF: wavefunction(s)  2S renormalized

     IMPORTANT: XC functional enforced from input :
     Exchange-correlation= PBE
                           (   1   4   3   4   0   0   0)
     Any further DFT definition will be discarded
     Please, verify this is what you really want

     Using Slab Decomposition

 ----2D----2D----2D----2D----2D----2D----2D----2D----2D----2D----2D----2D
  The code is running with the 2D cutoff
  Please refer to:
  Sohier, T., Calandra, M., & Mauri, F. (2017),
  Density functional perturbation theory for gated two-dimensional heterostructu
 res:
  Theoretical developments and application to flexural phonons in graphene.
 ----2D----2D----2D----2D----2D----2D----2D----2D----2D----2D----2D----2D

     negative rho (up, down):  1.264E-04 0.000E+00
     Reading collected, re-writing distributed wavefunctions

     Dynamical matrices for ( 6, 6, 1)  uniform grid of q-points
     (  20 q-points):
       N         xq(1)         xq(2)         xq(3)
       1   0.000000000   0.000000000   0.000000000
       2   0.000000000   0.192518373   0.000000000
       3   0.000000000   0.385036746   0.000000000
       4   0.000000000  -0.577555120   0.000000000
       5   0.166725802   0.096259187   0.000000000
       6   0.166725802   0.288777560   0.000000000
       7   0.166725802   0.481295933   0.000000000
       8   0.166725802  -0.481295933   0.000000000
       9   0.166725802  -0.288777560   0.000000000
      10   0.166725802  -0.096259187   0.000000000
      11   0.333451604   0.192518373   0.000000000
      12   0.333451604   0.385036746   0.000000000
      13   0.333451604   0.577555120   0.000000000
      14   0.333451604  -0.385036747   0.000000000
      15   0.333451604  -0.192518373   0.000000000
      16   0.333451604  -0.000000000   0.000000000
      17  -0.500177405  -0.288777560   0.000000000
      18  -0.500177405  -0.096259186   0.000000000
      19  -0.500177405   0.096259187   0.000000000
      20  -0.500177405  -0.866332679   0.000000000

     Saving dvscf to file. Distribute only q points, not irreducible represetations.

     Calculation of q =    0.0000000   0.0000000   0.0000000

     Phonon dispersions for hBN

     bravais-lattice index     =            0
     lattice parameter (alat)  =       4.7540  a.u.
     unit-cell volume          =     554.4197 (a.u.)^3
     number of atoms/cell      =            2
     number of atomic types    =            2
     kinetic-energy cut-off    =      60.0000  Ry
     charge density cut-off    =     500.0000  Ry
     convergence threshold     =      1.0E-16
     beta                      =       0.1000
     number of iterations used =            4
     Exchange-correlation= PBE
                           (   1   4   3   4   0   0   0)

     celldm(1)=    4.75404  celldm(2)=    0.00000  celldm(3)=    0.00000
     celldm(4)=    0.00000  celldm(5)=    0.00000  celldm(6)=    0.00000

     crystal axes: (cart. coord. in units of alat)
               a(1) = (  0.9996  0.0000  0.0000 )
               a(2) = ( -0.4998  0.8657  0.0000 )
               a(3) = (  0.0000  0.0000  5.9625 )

     reciprocal axes: (cart. coord. in units 2 pi/alat)
               b(1) = (  1.0004  0.5776  0.0000 )
               b(2) = (  0.0000  1.1551  0.0000 )
               b(3) = (  0.0000  0.0000  0.1677 )

     Atoms inside the unit cell:

     Cartesian axes

     site n.  atom      mass           positions (alat units)
        1     B   10.8110   tau(    1) = (   -0.00000    0.57715    2.98124  )
        2     N   14.0067   tau(    2) = (    0.49982    0.28857    2.98124  )

     Computing dynamical matrix for
                    q = (   0.0000000   0.0000000   0.0000000 )

      2 Sym.Ops. (with q -> -q+G )

     G cutoff =  286.2440  (   1638 G-vectors)     FFT grid: ( 36, 36,216)
     G cutoff =  137.3971  (    558 G-vectors)  smooth grid: ( 24, 24,144)

     number of k points=    20  Methfessel-Paxton smearing, width (Ry)=  0.0100

     PseudoPot. # 1 for B  read from file:
     ./pseudo/B.pbe-n-kjpaw_psl.1.0.0.UPF
     MD5 check sum: 8c825a5969375aca5c2c6ad5945b3059
     Pseudo is Projector augmented-wave + core cor, Zval =  3.0
     Generated using &quot;atomic&quot; code by A. Dal Corso  v.6.3
     Shape of augmentation charge: PSQ
     Using radial grid of 1059 points,  4 beta functions with:
                l(1) =   0
                l(2) =   0
                l(3) =   1
                l(4) =   1
     Q(r) pseudized with 0 coefficients

     PseudoPot. # 2 for N  read from file:
     ./pseudo/N.pbe-n-kjpaw_psl.1.0.0.UPF
     MD5 check sum: 14c48229446f9f2d411169a3abcbc3fa
     Pseudo is Projector augmented-wave + core cor, Zval =  5.0
     Generated using &quot;atomic&quot; code by A. Dal Corso  v.6.3
     Shape of augmentation charge: PSQ
     Using radial grid of 1085 points,  4 beta functions with:
                l(1) =   0
                l(2) =   0
                l(3) =   1
                l(4) =   1
     Q(r) pseudized with 0 coefficients

     Mode symmetry, C_1 (1)     point group:

     Atomic displacements:
     There are    6 irreducible representations

     Representation     1      1 modes -  To be done

[...]

     Alpha used in Ewald sum =   2.8000

     negative rho (up, down):  1.264E-04 0.000E+00

     Representation #   1 mode #   1

     Self-consistent Calculation

     Pert. #  1: Fermi energy shift (Ry) =    -1.6882E+76    -2.5711E+61

      thresh= 1.000E-02 alpha_mix =  0.100 |ddv_scf|^2 =  1.310E-07

[...]

     End of self-consistent calculation

     Convergence has been achieved

[...]

     Pert. #  1: Fermi energy shift (Ry) =     1.1425E+73     0.0000E+00

[...]

     Number of q in the star =    1
     List of q in the star:
          1   0.000000000   0.000000000   0.000000000

     Diagonalizing the dynamical matrix

     q = (    0.000000000   0.000000000   0.000000000 )

     freq (    1) =       0.420491 [THz] =      14.026083 [cm-1]
     freq (    2) =       0.682452 [THz] =      22.764139 [cm-1]
     freq (    3) =       0.683812 [THz] =      22.809508 [cm-1]
     freq (    4) =      24.028447 [THz] =     801.502711 [cm-1]
     freq (    5) =      40.274828 [THz] =    1343.423646 [cm-1]
     freq (    6) =      40.275151 [THz] =    1343.434429 [cm-1]

[...]

     freq (   1-   1) =         14.0  [cm-1]   --> A               I+R
     freq (   2-   2) =         22.8  [cm-1]   --> A               I+R
     freq (   3-   3) =         22.8  [cm-1]   --> A               I+R
     freq (   4-   4) =        801.5  [cm-1]   --> A               I+R
     freq (   5-   5) =       1343.4  [cm-1]   --> A               I+R
     freq (   6-   6) =       1343.4  [cm-1]   --> A               I+R

[...]

     Title:
     Phonon dispersions for hBN

     bravais-lattice index     =            0
     lattice parameter (alat)  =       4.7540  a.u.
     unit-cell volume          =     554.4197 (a.u.)^3
     number of atoms/cell      =            2
     number of atomic types    =            2
     number of electrons       =         8.00
     number of Kohn-Sham states=            8
     kinetic-energy cutoff     =      60.0000  Ry
     charge density cutoff     =     500.0000  Ry
     Exchange-correlation= PBE
                           (   1   4   3   4   0   0   0)

[...]

     atomic species   valence    mass     pseudopotential
        B              3.00    10.81100     B ( 1.00)
        N              5.00    14.00670     N ( 1.00)

     No symmetry found

[...]

     site n.     atom                  positions (alat units)
         1           B   tau(   1) = (  -0.0000005   0.5771458   2.9812408  )
         2           N   tau(   2) = (   0.4998232   0.2885725   2.9812408  )

     number of k points=    72  Methfessel-Paxton smearing, width (Ry)=  0.0100
                       cart. coord. in units 2pi/alat
        k(    1) = (   0.0000000   0.0000000   0.0000000), wk =   0.0555556
        k(    2) = (   0.0000000   0.1925184   0.0000000), wk =   0.0000000
        k(    3) = (   0.0000000   0.1925184   0.0000000), wk =   0.0555556
        k(    4) = (   0.0000000   0.3850367   0.0000000), wk =   0.0000000
        k(    5) = (   0.0000000   0.3850367   0.0000000), wk =   0.0555556
        k(    6) = (   0.0000000   0.5775551   0.0000000), wk =   0.0000000
        k(    7) = (   0.0000000  -0.5775551   0.0000000), wk =   0.0555556
        k(    8) = (   0.0000000  -0.3850367   0.0000000), wk =   0.0000000
        k(    9) = (   0.1667258   0.2887776   0.0000000), wk =   0.0555556
        k(   10) = (   0.1667258   0.4812959   0.0000000), wk =   0.0000000
        k(   11) = (   0.1667258   0.4812959   0.0000000), wk =   0.0555556
        k(   12) = (   0.1667258   0.6738143   0.0000000), wk =   0.0000000
        k(   13) = (   0.3334516   0.5775551   0.0000000), wk =   0.0555556
        k(   14) = (   0.3334516   0.7700735   0.0000000), wk =   0.0000000
        k(   15) = (  -0.1667258  -0.0962592   0.0000000), wk =   0.0555556
        k(   16) = (  -0.1667258   0.0962592   0.0000000), wk =   0.0000000
        k(   17) = (   0.1667258  -0.0962592   0.0000000), wk =   0.0555556
        k(   18) = (   0.1667258   0.0962592   0.0000000), wk =   0.0000000
        k(   19) = (   0.0000000  -0.1925184   0.0000000), wk =   0.0555556
        k(   20) = (   0.0000000   0.0000000   0.0000000), wk =   0.0000000
        k(   21) = (  -0.1667258   0.0962592   0.0000000), wk =   0.0555556
        k(   22) = (  -0.1667258   0.2887776   0.0000000), wk =   0.0000000
        k(   23) = (   0.1667258   0.0962592   0.0000000), wk =   0.0555556
        k(   24) = (   0.1667258   0.2887776   0.0000000), wk =   0.0000000
        k(   25) = (  -0.3334516  -0.1925184   0.0000000), wk =   0.0555556
        k(   26) = (  -0.3334516   0.0000000   0.0000000), wk =   0.0000000
        k(   27) = (   0.3334516  -0.1925184   0.0000000), wk =   0.0555556
        k(   28) = (   0.3334516  -0.0000000   0.0000000), wk =   0.0000000
        k(   29) = (   0.0000000  -0.3850367   0.0000000), wk =   0.0555556
        k(   30) = (   0.0000000  -0.1925184   0.0000000), wk =   0.0000000
        k(   31) = (  -0.3334516   0.1925184   0.0000000), wk =   0.0555556
        k(   32) = (  -0.3334516   0.3850367   0.0000000), wk =   0.0000000
        k(   33) = (   0.3334516   0.1925184   0.0000000), wk =   0.0555556
        k(   34) = (   0.3334516   0.3850367   0.0000000), wk =   0.0000000
        k(   35) = (   0.5001774   0.2887776   0.0000000), wk =   0.0555556
        k(   36) = (   0.5001774   0.4812959   0.0000000), wk =   0.0000000
        k(   37) = (  -0.5001774   0.2887776   0.0000000), wk =   0.0555556
        k(   38) = (  -0.5001774   0.4812959   0.0000000), wk =   0.0000000
        k(   39) = (  -0.1667258   0.2887776   0.0000000), wk =   0.0555556
        k(   40) = (  -0.1667258   0.4812959   0.0000000), wk =   0.0000000
        k(   41) = (  -0.3334516   0.0000000   0.0000000), wk =   0.0555556
        k(   42) = (  -0.3334516   0.1925184   0.0000000), wk =   0.0000000
        k(   43) = (   0.1667258  -0.2887776   0.0000000), wk =   0.0555556
        k(   44) = (   0.1667258  -0.0962592   0.0000000), wk =   0.0000000
        k(   45) = (  -0.1667258  -0.2887776   0.0000000), wk =   0.0555556
        k(   46) = (  -0.1667258  -0.0962592   0.0000000), wk =   0.0000000
        k(   47) = (   0.3334516  -0.0000000   0.0000000), wk =   0.0555556
        k(   48) = (   0.3334516   0.1925184   0.0000000), wk =   0.0000000
        k(   49) = (  -0.1667258   0.4812959   0.0000000), wk =   0.0555556
        k(   50) = (  -0.1667258   0.6738143   0.0000000), wk =   0.0000000
        k(   51) = (  -0.5001774  -0.0962592   0.0000000), wk =   0.0555556
        k(   52) = (  -0.5001774   0.0962592   0.0000000), wk =   0.0000000
        k(   53) = (   0.3334516  -0.3850367   0.0000000), wk =   0.0555556
        k(   54) = (   0.3334516  -0.1925184   0.0000000), wk =   0.0000000
        k(   55) = (  -0.3334516  -0.3850367   0.0000000), wk =   0.0555556
        k(   56) = (  -0.3334516  -0.1925184   0.0000000), wk =   0.0000000
        k(   57) = (   0.5001774  -0.0962592   0.0000000), wk =   0.0555556
        k(   58) = (   0.5001774   0.0962592   0.0000000), wk =   0.0000000
        k(   59) = (  -0.1667258  -0.4812959   0.0000000), wk =   0.0555556
        k(   60) = (  -0.1667258  -0.2887776   0.0000000), wk =   0.0000000
        k(   61) = (   0.1667258  -0.4812959   0.0000000), wk =   0.0555556
        k(   62) = (   0.1667258  -0.2887776   0.0000000), wk =   0.0000000
        k(   63) = (  -0.3334516   0.3850367   0.0000000), wk =   0.0555556
        k(   64) = (  -0.3334516   0.5775551   0.0000000), wk =   0.0000000
        k(   65) = (   0.5001774   0.0962592   0.0000000), wk =   0.0555556
        k(   66) = (   0.5001774   0.2887776   0.0000000), wk =   0.0000000
        k(   67) = (   0.3334516   0.3850367   0.0000000), wk =   0.0555556
        k(   68) = (   0.3334516   0.5775551   0.0000000), wk =   0.0000000
        k(   69) = (  -0.5001774   0.0962592   0.0000000), wk =   0.0555556
        k(   70) = (  -0.5001774   0.2887776   0.0000000), wk =   0.0000000
        k(   71) = (  -0.3334516   0.5775551   0.0000000), wk =   0.0555556
        k(   72) = (  -0.3334516   0.7700735   0.0000000), wk =   0.0000000

     The potential is recalculated from file :
     ./TMP_DIR/_ph0/hBN.q_2/hBN.save/charge-density

     negative rho (up, down):  1.264E-04 0.000E+00
     Starting wfcs are    8 atomic wfcs
     Checking if some PAW data can be deallocated...

     Band Structure Calculation
     Davidson diagonalization with overlap

     ethr =  1.25E-10,  avg # of iterations = 23.6

     End of band structure calculation

          k = 0.0000 0.0000 0.0000 (  4323 PWs)   bands (ev):

   -23.4232 -11.0107  -7.1696  -7.1695  -1.1150  -0.1197   1.4323   2.4022

[...]

          k =-0.1667-0.0963 0.0000 (  4320 PWs)   bands (ev):

[...]

     the Fermi energy is    -2.6412 ev

     Writing output data file ./TMP_DIR/_ph0/hBN.q_2/hBN.save/

[...]

     No symmetry!

[...]

     Number of q in the star =    1
     List of q in the star:
          1   0.000000000   0.192518373   0.000000000
     In addition there is the -q list:
          1   0.000000000  -0.192518373   0.000000000

[...]

     freq (   1-   1) =         55.8  [cm-1]   --> A
     freq (   2-   2) =        292.3  [cm-1]   --> A
     freq (   3-   3) =        486.6  [cm-1]   --> A
     freq (   4-   4) =        769.6  [cm-1]   --> A
     freq (   5-   5) =       1315.5  [cm-1]   --> A
     freq (   6-   6) =       1511.5  [cm-1]   --> A

[...]

     No symmetry!

[...]

     Number of q in the star =    1
     List of q in the star:
          1  -0.500177405   0.096259187   0.000000000
     In addition there is the -q list:
          1   0.500177405  -0.096259187   0.000000000

[...]

     Calculation of q =   -0.5001774  -0.8663327   0.0000000

     Using Slab Decomposition

     Title:
     Phonon dispersions for hBN

     bravais-lattice index     =            0
     lattice parameter (alat)  =       4.7540  a.u.
     unit-cell volume          =     554.4197 (a.u.)^3
     number of atoms/cell      =            2
     number of atomic types    =            2
     number of electrons       =         8.00
     number of Kohn-Sham states=            8
     kinetic-energy cutoff     =      60.0000  Ry
     charge density cutoff     =     500.0000  Ry
     Exchange-correlation= PBE
                           (   1   4   3   4   0   0   0)

[...]

     atomic species   valence    mass     pseudopotential
        B              3.00    10.81100     B ( 1.00)
        N              5.00    14.00670     N ( 1.00)

     No symmetry found

[...]

     site n.     atom                  positions (alat units)
         1           B   tau(   1) = (  -0.0000005   0.5771458   2.9812408  )
         2           N   tau(   2) = (   0.4998232   0.2885725   2.9812408  )

     number of k points=    40  Methfessel-Paxton smearing, width (Ry)=  0.0100
                       cart. coord. in units 2pi/alat
        k(    1) = (   0.0000000   0.0000000   0.0000000), wk =   0.0555556
        k(    2) = (  -0.5001774  -0.8663327   0.0000000), wk =   0.0000000
        k(    3) = (   0.0000000   0.1925184   0.0000000), wk =   0.1111111
        k(    4) = (  -0.5001774  -0.6738143   0.0000000), wk =   0.0000000
        k(    5) = (   0.0000000   0.3850367   0.0000000), wk =   0.1111111
        k(    6) = (  -0.5001774  -0.4812959   0.0000000), wk =   0.0000000
        k(    7) = (   0.0000000  -0.5775551   0.0000000), wk =   0.0555556
        k(    8) = (  -0.5001774  -1.4438878   0.0000000), wk =   0.0000000
        k(    9) = (   0.1667258   0.2887776   0.0000000), wk =   0.1111111
        k(   10) = (  -0.3334516  -0.5775551   0.0000000), wk =   0.0000000
        k(   11) = (   0.1667258   0.4812959   0.0000000), wk =   0.1111111
        k(   12) = (  -0.3334516  -0.3850367   0.0000000), wk =   0.0000000
        k(   13) = (   0.3334516   0.5775551   0.0000000), wk =   0.1111111
        k(   14) = (  -0.1667258  -0.2887776   0.0000000), wk =   0.0000000
        k(   15) = (  -0.1667258  -0.0962592   0.0000000), wk =   0.1111111
        k(   16) = (  -0.6669032  -0.9625919   0.0000000), wk =   0.0000000
        k(   17) = (   0.1667258  -0.0962592   0.0000000), wk =   0.1111111
        k(   18) = (  -0.3334516  -0.9625919   0.0000000), wk =   0.0000000
        k(   19) = (  -0.3334516  -0.1925184   0.0000000), wk =   0.1111111
        k(   20) = (  -0.8336290  -1.0588511   0.0000000), wk =   0.0000000
        k(   21) = (   0.3334516  -0.1925184   0.0000000), wk =   0.1111111
        k(   22) = (  -0.1667258  -1.0588511   0.0000000), wk =   0.0000000
        k(   23) = (   0.5001774   0.2887776   0.0000000), wk =   0.0555556
        k(   24) = (   0.0000000  -0.5775551   0.0000000), wk =   0.0000000
        k(   25) = (  -0.5001774   0.2887776   0.0000000), wk =   0.0555556
        k(   26) = (  -1.0003548  -0.5775551   0.0000000), wk =   0.0000000
        k(   27) = (  -0.1667258   0.2887776   0.0000000), wk =   0.1111111
        k(   28) = (  -0.6669032  -0.5775551   0.0000000), wk =   0.0000000
        k(   29) = (  -0.3334516   0.0000000   0.0000000), wk =   0.1111111
        k(   30) = (  -0.8336290  -0.8663327   0.0000000), wk =   0.0000000
        k(   31) = (  -0.1667258   0.4812959   0.0000000), wk =   0.1111111
        k(   32) = (  -0.6669032  -0.3850367   0.0000000), wk =   0.0000000
        k(   33) = (  -0.5001774  -0.0962592   0.0000000), wk =   0.1111111
        k(   34) = (  -1.0003548  -0.9625919   0.0000000), wk =   0.0000000
        k(   35) = (   0.3334516  -0.3850367   0.0000000), wk =   0.1111111
        k(   36) = (  -0.1667258  -1.2513694   0.0000000), wk =   0.0000000
        k(   37) = (  -0.3334516  -0.3850367   0.0000000), wk =   0.1111111
        k(   38) = (  -0.8336290  -1.2513694   0.0000000), wk =   0.0000000
        k(   39) = (   0.5001774  -0.0962592   0.0000000), wk =   0.1111111
        k(   40) = (  -0.0000000  -0.9625919   0.0000000), wk =   0.0000000

     The potential is recalculated from file :
     ./TMP_DIR/_ph0/hBN.q_20/hBN.save/charge-density

     negative rho (up, down):  1.264E-04 0.000E+00
     Starting wfcs are    8 atomic wfcs
     Checking if some PAW data can be deallocated...

     Band Structure Calculation
     Davidson diagonalization with overlap

     ethr =  1.25E-10,  avg # of iterations = 23.6

     End of band structure calculation

[...]

          k = 0.5002-0.0963 0.0000 (  4368 PWs)   bands (ev):

[...]

          k =-0.0000-0.9626 0.0000 (  4320 PWs)   bands (ev):

   -22.9011 -10.3072  -9.1318  -8.0492  -0.2274   0.6960   2.3103   3.0889

     the Fermi energy is    -2.6412 ev

     Writing output data file ./TMP_DIR/_ph0/hBN.q_20/hBN.save/

     Phonon dispersions for hBN

     bravais-lattice index     =            0
     lattice parameter (alat)  =       4.7540  a.u.
     unit-cell volume          =     554.4197 (a.u.)^3
     number of atoms/cell      =            2
     number of atomic types    =            2
     kinetic-energy cut-off    =      60.0000  Ry
     charge density cut-off    =     500.0000  Ry
     convergence threshold     =      1.0E-16
     beta                      =       0.1000
     number of iterations used =            4
     Exchange-correlation= PBE
                           (   1   4   3   4   0   0   0)

     celldm(1)=    4.75404  celldm(2)=    0.00000  celldm(3)=    0.00000
     celldm(4)=    0.00000  celldm(5)=    0.00000  celldm(6)=    0.00000

     crystal axes: (cart. coord. in units of alat)
               a(1) = (  0.9996  0.0000  0.0000 )
               a(2) = ( -0.4998  0.8657  0.0000 )
               a(3) = (  0.0000  0.0000  5.9625 )

     reciprocal axes: (cart. coord. in units 2 pi/alat)
               b(1) = (  1.0004  0.5776  0.0000 )
               b(2) = (  0.0000  1.1551  0.0000 )
               b(3) = (  0.0000  0.0000  0.1677 )

     Atoms inside the unit cell:

     Cartesian axes

     site n.  atom      mass           positions (alat units)
        1     B   10.8110   tau(    1) = (   -0.00000    0.57715    2.98124  )
        2     N   14.0067   tau(    2) = (    0.49982    0.28857    2.98124  )

     Computing dynamical matrix for
                    q = (  -0.5001774  -0.8663327   0.0000000 )

      2 Sym.Ops. (with q -> -q+G )

     G cutoff =  286.2440  (   1638 G-vectors)     FFT grid: ( 36, 36,216)
     G cutoff =  137.3971  (    542 G-vectors)  smooth grid: ( 24, 24,144)

     number of k points=    40  Methfessel-Paxton smearing, width (Ry)=  0.0100

     PseudoPot. # 1 for B  read from file:
     ./pseudo/B.pbe-n-kjpaw_psl.1.0.0.UPF
     MD5 check sum: 8c825a5969375aca5c2c6ad5945b3059
     Pseudo is Projector augmented-wave + core cor, Zval =  3.0
     Generated using &quot;atomic&quot; code by A. Dal Corso  v.6.3
     Shape of augmentation charge: PSQ
     Using radial grid of 1059 points,  4 beta functions with:
                l(1) =   0
                l(2) =   0
                l(3) =   1
                l(4) =   1
     Q(r) pseudized with 0 coefficients

     PseudoPot. # 2 for N  read from file:
     ./pseudo/N.pbe-n-kjpaw_psl.1.0.0.UPF
     MD5 check sum: 14c48229446f9f2d411169a3abcbc3fa
     Pseudo is Projector augmented-wave + core cor, Zval =  5.0
     Generated using &quot;atomic&quot; code by A. Dal Corso  v.6.3
     Shape of augmentation charge: PSQ
     Using radial grid of 1085 points,  4 beta functions with:
                l(1) =   0
                l(2) =   0
                l(3) =   1
                l(4) =   1
     Q(r) pseudized with 0 coefficients

[...]

     Atomic displacements:
     There are    6 irreducible representations

[...]

     Representation     6      1 modes -  To be done

     Alpha used in Ewald sum =   2.8000

     negative rho (up, down):  1.264E-04 0.000E+00

[...]

     Representation #   6 mode #   6

     Self-consistent Calculation

[...]

      thresh= 1.218E-09 alpha_mix =  0.100 |ddv_scf|^2 =  9.788E-17

     End of self-consistent calculation

     Convergence has been achieved

     Number of q in the star =    1
     List of q in the star:
          1  -0.500177405  -0.866332679   0.000000000

     Diagonalizing the dynamical matrix

     q = (   -0.500177405  -0.866332679   0.000000000 )

     freq (    1) =       9.086724 [THz] =     303.100503 [cm-1]
     freq (    2) =      16.399895 [THz] =     547.041629 [cm-1]
     freq (    3) =      18.812697 [THz] =     627.524023 [cm-1]
     freq (    4) =      34.367891 [THz] =    1146.389462 [cm-1]
     freq (    5) =      37.251625 [THz] =    1242.580455 [cm-1]
     freq (    6) =      38.599638 [THz] =    1287.545330 [cm-1]

     Mode symmetry, C_1 (1)     point group:

     freq (   1-   1) =        303.1  [cm-1]   --> A
     freq (   2-   2) =        547.0  [cm-1]   --> A
     freq (   3-   3) =        627.5  [cm-1]   --> A
     freq (   4-   4) =       1146.4  [cm-1]   --> A
     freq (   5-   5) =       1242.6  [cm-1]   --> A
     freq (   6-   6) =       1287.5  [cm-1]   --> A

     General routines

     Parallel routines

     INITIALIZATION:

     DYNAMICAL MATRIX:

      General routines

   This run was terminated on:  19:30:52  15Dec2022

   JOB DONE.