     Program PWSCF v.6.8 starts on 15Dec2022 at 18: 9:22

     R & G space division:  proc/nbgrp/npool/nimage =      32

     Waiting for input...
     Reading input from standard input

     Current dimensions of program PWSCF are:
     Max number of different atomic species (ntypx) = 10
     Max number of k-points (npk) =  40000
     Max angular momentum in pseudopotentials (lmaxx) =  4
     file N.pbe-n-kjpaw_psl.1.0.0.UPF: wavefunction(s)  2S renormalized

     Using Slab Decomposition

     bravais-lattice index     =            0
     lattice parameter (alat)  =       4.7540  a.u.
     unit-cell volume          =     554.4197 (a.u.)^3
     number of atoms/cell      =            2
     number of atomic types    =            2
     number of electrons       =         8.00
     number of Kohn-Sham states=            8
     kinetic-energy cutoff     =      60.0000  Ry
     charge density cutoff     =     500.0000  Ry
     scf convergence threshold =      1.0E-12
     mixing beta               =       0.7000
     number of iterations used =            8  plain     mixing
     Exchange-correlation= SLA  PW   PBX  PBC
                           (   1   4   3   4   0   0   0)

     celldm(1)=   4.754042  celldm(2)=   0.000000  celldm(3)=   0.000000
     celldm(4)=   0.000000  celldm(5)=   0.000000  celldm(6)=   0.000000

     crystal axes: (cart. coord. in units of alat)
               a(1) = (   0.999645   0.000000   0.000000 )
               a(2) = (  -0.499823   0.865718   0.000000 )
               a(3) = (   0.000000   0.000000   5.962482 )

     reciprocal axes: (cart. coord. in units 2 pi/alat)
               b(1) = (  1.000355  0.577555  0.000000 )
               b(2) = (  0.000000  1.155110  0.000000 )
               b(3) = (  0.000000  0.000000  0.167715 )

     PseudoPot. # 1 for B  read from file:
     ./pseudo/B.pbe-n-kjpaw_psl.1.0.0.UPF
     MD5 check sum: 8c825a5969375aca5c2c6ad5945b3059
     Pseudo is Projector augmented-wave + core cor, Zval =  3.0
     Generated using &quot;atomic&quot; code by A. Dal Corso  v.6.3
     Shape of augmentation charge: PSQ
     Using radial grid of 1059 points,  4 beta functions with:
                l(1) =   0
                l(2) =   0
                l(3) =   1
                l(4) =   1
     Q(r) pseudized with 0 coefficients

     PseudoPot. # 2 for N  read from file:
     ./pseudo/N.pbe-n-kjpaw_psl.1.0.0.UPF
     MD5 check sum: 14c48229446f9f2d411169a3abcbc3fa
     Pseudo is Projector augmented-wave + core cor, Zval =  5.0
     Generated using &quot;atomic&quot; code by A. Dal Corso  v.6.3
     Shape of augmentation charge: PSQ
     Using radial grid of 1085 points,  4 beta functions with:
                l(1) =   0
                l(2) =   0
                l(3) =   1
                l(4) =   1
     Q(r) pseudized with 0 coefficients

     atomic species   valence    mass     pseudopotential
        B              3.00    10.81100     B ( 1.00)
        N              5.00    14.00670     N ( 1.00)

     No symmetry found

   Cartesian axes

     site n.     atom                  positions (alat units)
         1           B   tau(   1) = (  -0.0000005   0.5771458   2.9812408  )
         2           N   tau(   2) = (   0.4998232   0.2885725   2.9812408  )

     number of k points=    20  Methfessel-Paxton smearing, width (Ry)=  0.0100
                       cart. coord. in units 2pi/alat
        k(    1) = (   0.0000000   0.0000000   0.0000000), wk =   0.0555556
        k(    2) = (   0.0000000   0.1925184   0.0000000), wk =   0.1111111
        k(    3) = (   0.0000000   0.3850367   0.0000000), wk =   0.1111111
        k(    4) = (   0.0000000  -0.5775551   0.0000000), wk =   0.0555556
        k(    5) = (   0.1667258   0.0962592   0.0000000), wk =   0.1111111
        k(    6) = (   0.1667258   0.2887776   0.0000000), wk =   0.1111111
        k(    7) = (   0.1667258   0.4812959   0.0000000), wk =   0.1111111
        k(    8) = (   0.1667258  -0.4812959   0.0000000), wk =   0.1111111
        k(    9) = (   0.1667258  -0.2887776   0.0000000), wk =   0.1111111
        k(   10) = (   0.1667258  -0.0962592   0.0000000), wk =   0.1111111
        k(   11) = (   0.3334516   0.1925184   0.0000000), wk =   0.1111111
        k(   12) = (   0.3334516   0.3850367   0.0000000), wk =   0.1111111
        k(   13) = (   0.3334516   0.5775551   0.0000000), wk =   0.1111111
        k(   14) = (   0.3334516  -0.3850367   0.0000000), wk =   0.1111111
        k(   15) = (   0.3334516  -0.1925184   0.0000000), wk =   0.1111111
        k(   16) = (   0.3334516  -0.0000000   0.0000000), wk =   0.1111111
        k(   17) = (  -0.5001774  -0.2887776   0.0000000), wk =   0.0555556
        k(   18) = (  -0.5001774  -0.0962592   0.0000000), wk =   0.1111111
        k(   19) = (  -0.5001774   0.0962592   0.0000000), wk =   0.1111111
        k(   20) = (  -0.5001774  -0.8663327   0.0000000), wk =   0.0555556

     Initial potential from superposition of free atoms

     starting charge    7.99971, renormalised to    8.00000

     negative rho (up, down):  5.459E-05 0.000E+00
     Starting wfcs are    8 randomized atomic wfcs
     Checking if some PAW data can be deallocated...

     Self-consistent Calculation

     iteration #  1     ecut=    60.00 Ry     beta= 0.70
     CG style diagonalization
     ethr =  1.00E-02,  avg # of iterations =  4.1

     negative rho (up, down):  4.769E-05 0.000E+00

     total energy              =     -39.71767209 Ry
     estimated scf accuracy    <       0.41115520 Ry

[...]

     iteration #  4     ecut=    60.00 Ry     beta= 0.70
     CG style diagonalization
     c_bands:  1 eigenvalues not converged
     ethr =  2.27E-05,  avg # of iterations =  6.3

[...]

     total energy              =     -39.86487356 Ry
     estimated scf accuracy    <          8.7E-12 Ry

     iteration # 14     ecut=    60.00 Ry     beta= 0.70
     CG style diagonalization
     ethr =  1.09E-13,  avg # of iterations =  3.4

[...]

     End of self-consistent calculation

          k = 0.0000 0.0000 0.0000 (  4323 PWs)   bands (ev):

   -23.4232 -11.0108  -7.1696  -7.1695  -1.1150  -0.1197   1.4323   2.4022

[...]

          k = 0.3335-0.0000 0.0000 (  4360 PWs)   bands (ev):

[...]

          k =-0.5002-0.2888 0.0000 (  4340 PWs)   bands (ev):

[...]

          k =-0.5002-0.8663 0.0000 (  4340 PWs)   bands (ev):

   -20.3736 -14.6685  -9.9445  -6.7161  -1.0323   3.8516   6.6152   7.0736

     the Fermi energy is    -2.6417 ev

!    total energy              =     -39.86487356 Ry

     total all-electron energy =      -159.403019 Ry
     estimated scf accuracy    <          4.7E-14 Ry
     smearing contrib. (-TS)   =       0.00000000 Ry
     internal energy E=F+TS    =     -39.86487356 Ry

     The total energy is F=E-TS. E is the sum of the following terms:
     one-electron contribution =    -249.89874196 Ry
     hartree contribution      =     126.20384611 Ry
     xc contribution           =      -8.80385727 Ry
     ewald contribution        =     105.81411056 Ry
     one-center paw contrib.   =     -13.18023100 Ry

     convergence has been achieved in  14 iterations

     negative rho (up, down):  1.264E-04 0.000E+00

     Forces acting on atoms (cartesian axes, Ry/au):

     atom    1 type  1   force =     0.00000396   -0.00000229    0.00000001
     atom    2 type  2   force =    -0.00000396    0.00000229   -0.00000001

     Total force =     0.000006     Total SCF correction =     0.000000

     Computing stress (Cartesian axis) and pressure

     negative rho (up, down):  1.264E-04 0.000E+00
          total   stress  (Ry/bohr**3)                   (kbar)     P=       -0.18
   0.00000000   0.00000000  -0.00000000            0.00        0.00       -0.00
   0.00000000   0.00000001   0.00000000            0.00        0.00        0.00
  -0.00000000   0.00000000  -0.00000374           -0.00        0.00       -0.55

     Writing output data file ./TMP_DIR/hBN.save/

     General routines

     Parallel routines

   This run was terminated on:  18: 9:29  15Dec2022

   JOB DONE.