     Program PWSCF v.6.4.1 starts on  2Jul2021 at 10:32:45

     R & G space division:  proc/nbgrp/npool/nimage =      64
     Waiting for input...
     Reading input from standard input

     Current dimensions of program PWSCF are:
     Max number of different atomic species (ntypx) = 10
     Max number of k-points (npk) =  40000
     Max angular momentum in pseudopotentials (lmaxx) =  3
               file N.pbe-n-kjpaw_psl.1.0.0.UPF: wavefunction(s)  2S renormalized
               file C.pbe-n-kjpaw_psl.1.0.0.UPF: wavefunction(s)  2S 2P renormalized
               file C.pbe-n-kjpaw_psl.1.0.0.UPF: wavefunction(s)  2S 2P renormalized
               file C.pbe-n-kjpaw_psl.1.0.0.UPF: wavefunction(s)  2S 2P renormalized

     Parameters for DFT-D3 Dispersion Correction:
       Reference C6 values for interpolation:

         atom   Coordination number   C6
         B          0.000           214.36
         B          0.971           150.74
         B          1.944           106.23
         B          2.913            62.89
         B          4.586            56.06
         C1         0.000            98.23
         C1         0.987            86.49
         C1         1.998            58.72
         C1         2.999            51.56
         C1         3.984            36.41
         C2         0.000            98.23
         C2         0.987            86.49
         C2         1.998            58.72
         C2         2.999            51.56
         C2         3.984            36.41
         C3         0.000            98.23
         C3         0.987            86.49
         C3         1.998            58.72
         C3         2.999            51.56
         C3         3.984            36.41
         N          0.000            50.54
         N          0.994            44.25
         N          2.014            39.35
         N          2.990            31.16

       Values used:

         atom   Coordination number  R0_AB[au]  C6      C8
         B          3.326            3.039     62.90   2506.22
         B          3.318            3.039     62.90   2506.42
         B          3.320            3.039     62.90   2506.37
         B          3.324            3.039     62.90   2506.29
         B          3.326            3.039     62.90   2506.23
         B          3.324            3.039     62.90   2506.27
         B          3.327            3.039     62.90   2506.21
         B          3.326            3.039     62.90   2506.24
         B          3.321            3.039     62.90   2506.34
         B          3.311            3.039     62.91   2506.58
         B          3.319            3.039     62.90   2506.40
         B          3.324            3.039     62.90   2506.27
         B          3.324            3.039     62.90   2506.29
         B          3.324            3.039     62.90   2506.27
         B          3.325            3.039     62.90   2506.25
         B          3.329            3.039     62.90   2506.16
         B          3.304            3.039     62.91   2506.74
         B          3.292            3.039     62.92   2507.00
         B          3.318            3.039     62.90   2506.42
         B          3.324            3.039     62.90   2506.27
         B          3.326            3.039     62.90   2506.23
         B          3.322            3.039     62.90   2506.32
         B          3.319            3.039     62.90   2506.39
         B          3.306            3.039     62.91   2506.70
         C2         3.251            2.750     49.40   1428.70
         B          3.292            3.039     62.92   2507.00
         B          3.319            3.039     62.90   2506.40
         B          3.324            3.039     62.90   2506.29
         B          3.321            3.039     62.90   2506.36
         B          3.316            3.039     62.90   2506.45
         B          3.303            3.039     62.91   2506.75
         B          3.306            3.039     62.91   2506.70
         B          3.304            3.039     62.91   2506.74
         B          3.311            3.039     62.91   2506.58
         B          3.320            3.039     62.90   2506.37
         B          3.317            3.039     62.90   2506.43
         B          3.317            3.039     62.90   2506.43
         B          3.316            3.039     62.90   2506.45
         B          3.319            3.039     62.90   2506.39
         B          3.329            3.039     62.90   2506.16
         B          3.321            3.039     62.90   2506.34
         B          3.318            3.039     62.90   2506.42
         B          3.320            3.039     62.90   2506.38
         B          3.317            3.039     62.90   2506.43
         B          3.321            3.039     62.90   2506.36
         B          3.322            3.039     62.90   2506.32
         B          3.325            3.039     62.90   2506.25
         B          3.326            3.039     62.90   2506.24
         B          3.326            3.039     62.90   2506.22
         N          3.130            2.478     31.22    688.74
         N          3.129            2.478     31.22    688.75
         N          3.126            2.478     31.22    688.77
         N          3.128            2.478     31.22    688.75
         N          3.129            2.478     31.22    688.74
         N          3.129            2.478     31.22    688.75
         N          3.129            2.478     31.22    688.75
         N          3.129            2.478     31.22    688.75
         N          3.130            2.478     31.22    688.74
         N          3.126            2.478     31.22    688.77
         N          3.125            2.478     31.22    688.79
[...]
         N          3.126            2.478     31.22    688.77
         N          3.127            2.478     31.22    688.77
         N          3.126            2.478     31.22    688.77
         N          3.127            2.478     31.22    688.77
         N          3.127            2.478     31.22    688.77
         N          3.130            2.478     31.22    688.73
         N          3.130            2.478     31.22    688.74
         N          3.129            2.478     31.22    688.75
         N          3.130            2.478     31.22    688.74
         N          3.127            2.478     31.22    688.77
         N          3.127            2.478     31.22    688.76
         N          3.129            2.478     31.22    688.75
         N          3.129            2.478     31.22    688.74
         N          3.129            2.478     31.22    688.75
         N          3.130            2.478     31.22    688.74

         Molecular C6 ( Ry / a.u.^6 ) =    437704.61

     gamma-point specific algorithms are used

     Message from routine setup:
     DEPRECATED: symmetry with ibrav=0, use correct ibrav instead

     bravais-lattice index     =            0
     lattice parameter (alat)  =      33.2346  a.u.
     unit-cell volume          =   36191.4510 (a.u.)^3
     number of atoms/cell      =           98
     number of atomic types    =            5
     number of electrons       =       391.00
     number of Kohn-Sham states=          245
     kinetic-energy cutoff     =      40.0000  Ry
     charge density cutoff     =     160.0000  Ry
     convergence threshold     =      1.0E-12
     mixing beta               =       0.7000
     number of iterations used =            8  plain     mixing
     Exchange-correlation      = SLA PW PBX PBC ( 1  4  3  4 0 0)
     nstep                     =           50

     celldm(1)=  33.234611  celldm(2)=   0.000000  celldm(3)=   0.000000
     celldm(4)=   0.000000  celldm(5)=   0.000000  celldm(6)=   0.000000

     crystal axes: (cart. coord. in units of alat)
               a(1) = (   1.000288   0.000429   0.000000 )
               a(2) = (  -0.499773   0.866490   0.000000 )
               a(3) = (   0.000000   0.000000   1.137204 )

     reciprocal axes: (cart. coord. in units 2 pi/alat)
               b(1) = (  0.999465  0.576470  0.000000 )
               b(2) = ( -0.000495  1.153797  0.000000 )
               b(3) = (  0.000000  0.000000  0.879350 )

     PseudoPot. # 1 for B  read from file:
     ./pseudo/B.pbe-n-kjpaw_psl.1.0.0.UPF
     MD5 check sum: 8c825a5969375aca5c2c6ad5945b3059
     Pseudo is Projector augmented-wave + core cor, Zval =  3.0
     Generated using "atomic" code by A. Dal Corso v.6.3
     Shape of augmentation charge: PSQ
     Using radial grid of 1059 points,  4 beta functions with:
                l(1) =   0
                l(2) =   0
                l(3) =   1
                l(4) =   1
     Q(r) pseudized with 0 coefficients

     PseudoPot. # 2 for N  read from file:
     ./pseudo/N.pbe-n-kjpaw_psl.1.0.0.UPF
     MD5 check sum: 14c48229446f9f2d411169a3abcbc3fa
     Pseudo is Projector augmented-wave + core cor, Zval =  5.0
     Generated using "atomic" code by A. Dal Corso v.6.3
     Shape of augmentation charge: PSQ
     Using radial grid of 1085 points,  4 beta functions with:
                l(1) =   0
                l(2) =   0
                l(3) =   1
                l(4) =   1
     Q(r) pseudized with 0 coefficients

     PseudoPot. # 3 for C  read from file:
     ./pseudo/C.pbe-n-kjpaw_psl.1.0.0.UPF
     MD5 check sum: 5f16ad9a65e90284d1d834d4ab3b0f7d
     Pseudo is Projector augmented-wave + core cor, Zval =  4.0
     Generated using "atomic" code by A. Dal Corso v.6.3
     Shape of augmentation charge: PSQ
     Using radial grid of 1073 points,  4 beta functions with:
                l(1) =   0
                l(2) =   0
                l(3) =   1
                l(4) =   1
     Q(r) pseudized with 0 coefficients

[...]

     atomic species   valence    mass     pseudopotential
        B              3.00    10.00000     B ( 1.00)
        N              5.00    14.00000     N ( 1.00)
        C1             4.00    12.00000     C ( 1.00)
        C2             4.00    12.00000     C ( 1.00)
        C3             4.00    12.00000     C ( 1.00)

     Starting magnetic structure
     atomic species   magnetization
        B            0.000
        N            0.000
        C1           1.000
        C2           0.000
        C3           0.000

      2 Sym. Ops. (no inversion) found

   Cartesian axes

     site n.     atom                  positions (alat units)
         1           B   tau(   1) = (  -0.0000529   0.0821409   0.5686018  )
         2           B   tau(   2) = (  -0.0714756   0.2061559   0.5686018  )
         3           B   tau(   3) = (  -0.1429706   0.3300495   0.5686018  )
         4           B   tau(   4) = (  -0.2144269   0.4537744   0.5686018  )
         5           B   tau(   5) = (  -0.2853634   0.5775884   0.5686018  )
         6           B   tau(   6) = (  -0.3566229   0.7015123   0.5686018  )
         7           B   tau(   7) = (  -0.4282124   0.8251742   0.5686018  )
         8           B   tau(   8) = (   0.1428054   0.0818218   0.5686018  )
         9           B   tau(   9) = (   0.0711145   0.2052878   0.5686018  )
        10           B   tau(  10) = (   0.0000498   0.3301808   0.5686018  )
[...]
        98           N   tau(  98) = (   0.5007767   0.7846041   0.5686018  )

     number of k points=     1
                       cart. coord. in units 2pi/alat
        k(    1) = (   0.0000000   0.0000000   0.0000000), wk =   1.0000000

     Occupations read from input

      Spin-up

[...]

      Spin-down

[...]

     Check: negative core charge=   -0.000006

     Initial potential from superposition of free atoms

     starting charge  390.98597, renormalised to  391.00000

     negative rho (up, down):  5.500E-02 2.479E-03
     Starting wfcs are  392 randomized atomic wfcs
     Checking if some PAW data can be deallocated...

     Self-consistent Calculation

[...]

     iteration #  9     ecut=    40.00 Ry     beta= 0.70
     CG style diagonalization
     c_bands:  1 eigenvalues not converged
     ethr =  1.06E-07,  avg # of iterations =  3.4

[...]

     total energy              =   -1940.39410551 Ry
     Harris-Foulkes estimate   =   -1940.39410551 Ry
     estimated scf accuracy    <          1.1E-14 Ry

[...]

     iteration # 32     ecut=    40.00 Ry     beta= 0.70
     CG style diagonalization
     ethr =  1.00E-13,  avg # of iterations =  3.0

[...]

     Magnetic moment per site:
     atom:    1    charge:    0.8514    magn:   -0.0000    constr:    0.0000
     atom:    2    charge:    0.8469    magn:    0.0003    constr:    0.0000
     atom:    3    charge:    0.8484    magn:   -0.0004    constr:    0.0000
     atom:    4    charge:    0.8498    magn:    0.0002    constr:    0.0000
     atom:    5    charge:    0.8523    magn:    0.0000    constr:    0.0000
     atom:    6    charge:    0.8510    magn:    0.0000    constr:    0.0000
     atom:    7    charge:    0.8519    magn:    0.0003    constr:    0.0000
     atom:    8    charge:    0.8509    magn:   -0.0000    constr:    0.0000
     atom:    9    charge:    0.8517    magn:   -0.0000    constr:    0.0000
     atom:   10    charge:    0.8449    magn:   -0.0009    constr:    0.0000
     atom:   11    charge:    0.8493    magn:   -0.0004    constr:    0.0000
     atom:   12    charge:    0.8516    magn:   -0.0004    constr:    0.0000
     atom:   13    charge:    0.8519    magn:    0.0002    constr:    0.0000
     atom:   14    charge:    0.8510    magn:    0.0000    constr:    0.0000
     atom:   15    charge:    0.8509    magn:    0.0003    constr:    0.0000
     atom:   16    charge:    0.8560    magn:   -0.0003    constr:    0.0000
     atom:   17    charge:    0.8626    magn:   -0.0018    constr:    0.0000
     atom:   18    charge:    0.8538    magn:   -0.0053    constr:    0.0000
     atom:   19    charge:    0.8550    magn:   -0.0018    constr:    0.0000
     atom:   20    charge:    0.8516    magn:   -0.0004    constr:    0.0000
     atom:   21    charge:    0.8523    magn:    0.0000    constr:    0.0000
     atom:   22    charge:    0.8475    magn:    0.0001    constr:    0.0000
     atom:   23    charge:    0.8443    magn:   -0.0004    constr:    0.0000
     atom:   24    charge:    0.8413    magn:    0.0009    constr:    0.0000
     atom:   25    charge:    1.5794    magn:    0.0322    constr:    0.0000
     atom:   26    charge:    0.8538    magn:   -0.0053    constr:    0.0000
     atom:   27    charge:    0.8493    magn:   -0.0004    constr:    0.0000
     atom:   28    charge:    0.8498    magn:    0.0002    constr:    0.0000
     atom:   29    charge:    0.8477    magn:    0.0000    constr:    0.0000
     atom:   30    charge:    0.8477    magn:    0.0005    constr:    0.0000
     atom:   31    charge:    0.8464    magn:    0.0018    constr:    0.0000
     atom:   32    charge:    0.8413    magn:    0.0009    constr:    0.0000
     atom:   33    charge:    0.8626    magn:   -0.0018    constr:    0.0000
     atom:   34    charge:    0.8449    magn:   -0.0009    constr:    0.0000
     atom:   35    charge:    0.8484    magn:   -0.0004    constr:    0.0000
     atom:   36    charge:    0.8473    magn:    0.0000    constr:    0.0000
     atom:   37    charge:    0.8465    magn:    0.0003    constr:    0.0000
     atom:   38    charge:    0.8477    magn:    0.0005    constr:    0.0000
     atom:   39    charge:    0.8443    magn:   -0.0004    constr:    0.0000
     atom:   40    charge:    0.8560    magn:   -0.0003    constr:    0.0000
     atom:   41    charge:    0.8517    magn:   -0.0000    constr:    0.0000
     atom:   42    charge:    0.8469    magn:    0.0003    constr:    0.0000
     atom:   43    charge:    0.8467    magn:    0.0002    constr:    0.0000
     atom:   44    charge:    0.8473    magn:    0.0000    constr:    0.0000
     atom:   45    charge:    0.8477    magn:    0.0000    constr:    0.0000
     atom:   46    charge:    0.8475    magn:    0.0001    constr:    0.0000
     atom:   47    charge:    0.8509    magn:    0.0003    constr:    0.0000
     atom:   48    charge:    0.8509    magn:   -0.0000    constr:    0.0000
     atom:   49    charge:    0.8514    magn:   -0.0000    constr:    0.0000
     atom:   50    charge:    2.6730    magn:    0.0004    constr:    0.0000
     atom:   51    charge:    2.6715    magn:    0.0003    constr:    0.0000
     atom:   52    charge:    2.6614    magn:    0.0047    constr:    0.0000
     atom:   53    charge:    2.6708    magn:    0.0034    constr:    0.0000
     atom:   54    charge:    2.6727    magn:    0.0001    constr:    0.0000
     atom:   55    charge:    2.6641    magn:    0.0002    constr:    0.0000
     atom:   56    charge:    2.6668    magn:   -0.0000    constr:    0.0000
     atom:   57    charge:    2.6688    magn:   -0.0001    constr:    0.0000
     atom:   58    charge:    2.6706    magn:    0.0034    constr:    0.0000
     atom:   59    charge:    2.6587    magn:    0.0241    constr:    0.0000
     atom:   60    charge:    2.6639    magn:    0.0002    constr:    0.0000
[...]
     atom:   84    charge:    2.6614    magn:    0.0047    constr:    0.0000
     atom:   85    charge:    2.6684    magn:    0.0005    constr:    0.0000
     atom:   86    charge:    2.6678    magn:    0.0001    constr:    0.0000
     atom:   87    charge:    2.6653    magn:    0.0001    constr:    0.0000
     atom:   88    charge:    2.6669    magn:   -0.0001    constr:    0.0000
     atom:   89    charge:    2.6724    magn:    0.0041    constr:    0.0000
     atom:   90    charge:    2.6706    magn:    0.0034    constr:    0.0000
     atom:   91    charge:    2.6715    magn:    0.0003    constr:    0.0000
     atom:   92    charge:    2.6733    magn:    0.0001    constr:    0.0000
     atom:   93    charge:    2.6684    magn:    0.0005    constr:    0.0000
     atom:   94    charge:    2.6697    magn:    0.0002    constr:    0.0000
     atom:   95    charge:    2.6719    magn:    0.0003    constr:    0.0000
     atom:   96    charge:    2.6723    magn:    0.0003    constr:    0.0000
     atom:   97    charge:    2.6688    magn:   -0.0001    constr:    0.0000
     atom:   98    charge:    2.6730    magn:    0.0004    constr:    0.0000

     End of self-consistent calculation

 ------ SPIN UP ------------

[...]

 ------ SPIN DOWN ----------

          k = 0.0000 0.0000 0.0000 ( 77359 PWs)   bands (ev):

   -21.8910 -21.6512 -21.4178 -21.3976 -21.3591 -21.2721 -21.2667 -20.8759
   -20.6664 -20.6481 -20.6100 -20.5415 -20.5367 -20.4257 -20.2939 -20.2795
   -20.2380 -20.1083 -20.0735 -19.5840 -19.4455 -19.4244 -19.3888 -19.3831
   -19.3706 -19.3622 -19.3403 -19.2905 -19.2827 -19.1608 -19.1437 -19.0259
   -18.9626 -18.9576 -18.9057 -18.7609 -18.7513 -18.5566 -18.5363 -18.5247
   -18.4964 -18.4547 -18.3986 -18.3645 -18.3566 -18.3021 -18.2717 -16.6221
   -14.6564 -13.1518 -12.7903 -12.7814 -12.7407 -12.7170 -12.7135 -12.6298
   -12.5792 -12.5226 -12.5171 -12.4444 -12.3883 -12.1597 -12.0560 -12.0516
   -12.0125 -11.9736 -11.9235 -11.5691 -11.4143 -11.4106 -11.4046 -11.3868
   -11.3585 -11.3406 -11.3292 -11.2905 -11.2859 -11.0632 -10.9888 -10.8785
   -10.7205 -10.7067 -10.6580 -10.6204 -10.4651 -10.0648 -10.0122  -9.9949
    -9.9229  -9.8648  -9.7817  -9.4129  -9.3366  -9.3255  -9.2938  -9.2844
    -9.2754  -9.2025  -9.0675  -8.9487  -8.9192  -8.9048  -8.9019  -8.8948
    -8.8919  -8.8818  -8.8613  -8.8534  -8.8481  -8.8203  -8.8181  -8.8051
    -8.7919  -8.7657  -8.7561  -8.7126  -8.6980  -8.6334  -8.6158  -8.6121
    -8.4578  -8.4165  -8.2388  -8.1713  -8.1698  -8.0642  -8.0512  -7.9184
    -7.8303  -7.8092  -7.7986  -7.7778  -7.7003  -7.6883  -7.5751  -7.5058
    -7.4927  -7.4819  -7.4552  -7.4368  -7.4293  -7.3890  -7.3723  -7.3337
    -7.3178  -7.3100  -7.2766  -7.2142  -7.2107  -7.1622  -7.1357  -7.0343
    -6.9962  -6.9673  -6.8567  -6.7771  -6.6063  -6.4716  -6.2344  -6.1827
    -6.1721  -6.1473  -6.1091  -6.0873  -6.0508  -6.0429  -6.0387  -6.0217
    -6.0149  -6.0028  -5.9444  -5.9378  -5.8176  -5.7646  -5.7626  -5.6311
    -5.5101  -5.4371  -5.4312  -5.3917  -5.2474  -5.1985  -4.9262  -4.9191
    -4.7830  -4.7791  -4.7533  -4.7193  -4.6566  -4.6060  -4.5415  -4.5070
    -4.4743  -4.4524  -4.0635  -2.8684   0.1799   0.2023   0.6696   0.6829
     0.7089   0.7273   0.7418   0.7442   0.7754   0.7968   0.7989   0.8036
     0.8181   0.8345   0.8583   0.8769   0.8797   0.9240   0.9507   0.9520
     1.0342   1.1630   1.2184   1.2556   1.2778   1.3066   1.3140   1.3288
     1.3342   1.3431   1.3586   1.3820   1.4179   1.4284   1.4330   1.4410
     1.4500   1.4656   1.4932   1.8856   2.0929   2.0940   2.1183   2.1188
     2.1262   2.1478   2.1551   2.2125   2.2695

     highest occupied, lowest unoccupied level (ev):    -3.0799   -4.0635

!    total energy              =   -1940.39410551 Ry
     Harris-Foulkes estimate   =   -1940.39410551 Ry
     estimated scf accuracy    <          6.6E-15 Ry

     total all-electron energy =     -7770.218582 Ry

     The total energy is the sum of the following terms:

     one-electron contribution =  -10656.57770365 Ry
     hartree contribution      =    5413.96106661 Ry
     xc contribution           =    -430.78341993 Ry
     ewald contribution        =    4376.45915471 Ry
     DFT-D3 Dispersion         =      -0.27035049 Ry
     one-center paw contrib.   =    -643.18285278 Ry

     total magnetization       =     1.00 Bohr mag/cell
     absolute magnetization    =     1.17 Bohr mag/cell

     convergence has been achieved in  32 iterations

     negative rho (up, down):  4.844E-01 4.027E-03

     Forces acting on atoms (cartesian axes, Ry/au):

     atom    1 type  1   force =     0.00000194   -0.00000090    0.00000000
     atom    2 type  1   force =    -0.00000067    0.00000426    0.00000000
     atom    3 type  1   force =     0.00000286   -0.00000125    0.00000000
     atom    4 type  1   force =     0.00000042   -0.00000202    0.00000000
     atom    5 type  1   force =     0.00000669   -0.00000302    0.00000000
     atom    6 type  1   force =     0.00001838   -0.00000602    0.00000000
     atom    7 type  1   force =     0.00001533   -0.00000693    0.00000000
     atom    8 type  1   force =     0.00000873   -0.00000724    0.00000000
     atom    9 type  1   force =     0.00000063    0.00000309    0.00000000
     atom   10 type  1   force =     0.00000414    0.00000236    0.00000000
     atom   11 type  1   force =     0.00000377   -0.00000376    0.00000000
     atom   12 type  1   force =    -0.00000047   -0.00000113    0.00000000
     atom   13 type  1   force =     0.00000563   -0.00000314    0.00000000
     atom   14 type  1   force =     0.00001455   -0.00001083    0.00000000
     atom   15 type  1   force =     0.00000738   -0.00000277    0.00000000
     atom   16 type  1   force =     0.00000128    0.00000227    0.00000000
     atom   17 type  1   force =    -0.00000280    0.00000106    0.00000000
     atom   18 type  1   force =    -0.00000393   -0.00000556    0.00000000
     atom   19 type  1   force =    -0.00000510   -0.00000003    0.00000000
     atom   20 type  1   force =    -0.00000305    0.00000206    0.00000000
     atom   21 type  1   force =     0.00000463   -0.00000322    0.00000000
     atom   22 type  1   force =     0.00000115    0.00000950    0.00000000
     atom   23 type  1   force =     0.00000001    0.00001155    0.00000000
     atom   24 type  1   force =    -0.00000530    0.00000109    0.00000000
     atom   25 type  4   force =    -0.00002559   -0.00003155    0.00000000
     atom   26 type  1   force =    -0.00001163    0.00000162    0.00000000
     atom   27 type  1   force =    -0.00000166    0.00000133    0.00000000
     atom   28 type  1   force =    -0.00000006    0.00000225    0.00000000
     atom   29 type  1   force =    -0.00000288    0.00000981    0.00000000
     atom   30 type  1   force =    -0.00000631    0.00001377    0.00000000
     atom   31 type  1   force =    -0.00001025    0.00000223    0.00000000
     atom   32 type  1   force =    -0.00000144   -0.00001019    0.00000000
     atom   33 type  1   force =    -0.00000119    0.00000252    0.00000000
     atom   34 type  1   force =    -0.00000178    0.00000105    0.00000000
     atom   35 type  1   force =    -0.00000068    0.00000126    0.00000000
     atom   36 type  1   force =    -0.00000479    0.00000493    0.00000000
     atom   37 type  1   force =    -0.00000904    0.00000559    0.00000000
     atom   38 type  1   force =    -0.00001451   -0.00000262    0.00000000
     atom   39 type  1   force =    -0.00000748   -0.00000759    0.00000000
     atom   40 type  1   force =     0.00000377   -0.00000218    0.00000000
     atom   41 type  1   force =     0.00000233    0.00000274    0.00000000
     atom   42 type  1   force =    -0.00000199    0.00000244    0.00000000
     atom   43 type  1   force =    -0.00000407    0.00000411    0.00000000
     atom   44 type  1   force =    -0.00000509    0.00000301    0.00000000
     atom   45 type  1   force =    -0.00000832   -0.00000310    0.00000000
     atom   46 type  1   force =    -0.00000624   -0.00000630    0.00000000
     atom   47 type  1   force =     0.00000835   -0.00000526    0.00000000
     atom   48 type  1   force =     0.00001556   -0.00000095    0.00000000
     atom   49 type  1   force =     0.00000434    0.00000236    0.00000000
     atom   50 type  2   force =     0.00000293   -0.00000361    0.00000000
     atom   51 type  2   force =     0.00000382   -0.00000958    0.00000000
     atom   52 type  2   force =    -0.00000110   -0.00000749    0.00000000
     atom   53 type  2   force =    -0.00000462   -0.00000408    0.00000000
     atom   54 type  2   force =    -0.00000271   -0.00000982    0.00000000
     atom   55 type  2   force =    -0.00000014   -0.00000785    0.00000000
     atom   56 type  2   force =     0.00000168   -0.00000200    0.00000000
     atom   57 type  2   force =     0.00000432    0.00000280    0.00000000
     atom   58 type  2   force =     0.00000341   -0.00001018    0.00000000
     atom   59 type  2   force =     0.00000241   -0.00001489    0.00000000
     atom   60 type  2   force =    -0.00000233   -0.00000049    0.00000000
[...]
     atom   84 type  2   force =     0.00000646   -0.00000172    0.00000000
     atom   85 type  2   force =     0.00000050   -0.00000171    0.00000000
     atom   86 type  2   force =    -0.00000305    0.00000065    0.00000000
     atom   87 type  2   force =    -0.00000582    0.00000304    0.00000000
     atom   88 type  2   force =    -0.00000859    0.00000731    0.00000000
     atom   89 type  2   force =    -0.00000388    0.00000621    0.00000000
     atom   90 type  2   force =     0.00000480   -0.00000105    0.00000000
     atom   91 type  2   force =     0.00000750   -0.00000285    0.00000000
     atom   92 type  2   force =     0.00000260   -0.00000369    0.00000000
     atom   93 type  2   force =    -0.00000043   -0.00000215    0.00000000
     atom   94 type  2   force =    -0.00000374   -0.00000104    0.00000000
     atom   95 type  2   force =    -0.00000667   -0.00000367    0.00000000
     atom   96 type  2   force =    -0.00000761   -0.00000705    0.00000000
     atom   97 type  2   force =    -0.00000326   -0.00000547    0.00000000
     atom   98 type  2   force =     0.00000230   -0.00000372    0.00000000

     Total force =     0.000099     Total SCF correction =     0.000000

     Computing stress (Cartesian axis) and pressure

     negative rho (up, down):  4.844E-01 4.027E-03
          total   stress  (Ry/bohr**3)                   (kbar)     P=   -0.17
   0.00000000  -0.00000000   0.00000000          0.00     -0.00      0.00
  -0.00000000   0.00000000   0.00000000         -0.00      0.00      0.00
   0.00000000   0.00000000  -0.00000339          0.00      0.00     -0.50

     Writing output data file C2Cn.save/

     General routines

     Parallel routines

   This run was terminated on:  11:31: 5   2Jul2021

   JOB DONE.