     Program PWSCF v.6.4.1 starts on  9Jun2021 at  9:54: 2

     R & G space division:  proc/nbgrp/npool/nimage =      64
     Waiting for input...
     Reading input from standard input

     Current dimensions of program PWSCF are:
     Max number of different atomic species (ntypx) = 10
     Max number of k-points (npk) =  40000
     Max angular momentum in pseudopotentials (lmaxx) =  3
               file N.pbe-n-kjpaw_psl.1.0.0.UPF: wavefunction(s)  2S renormalized
               file C.pbe-n-kjpaw_psl.1.0.0.UPF: wavefunction(s)  2S 2P renormalized
               file C.pbe-n-kjpaw_psl.1.0.0.UPF: wavefunction(s)  2S 2P renormalized
               file C.pbe-n-kjpaw_psl.1.0.0.UPF: wavefunction(s)  2S 2P renormalized

     Parameters for DFT-D3 Dispersion Correction:
       Reference C6 values for interpolation:

         atom   Coordination number   C6
         B          0.000           214.36
         B          0.971           150.74
         B          1.944           106.23
         B          2.913            62.89
         B          4.586            56.06
         C1         0.000            98.23
         C1         0.987            86.49
         C1         1.998            58.72
         C1         2.999            51.56
         C1         3.984            36.41
         C2         0.000            98.23
         C2         0.987            86.49
         C2         1.998            58.72
         C2         2.999            51.56
         C2         3.984            36.41
         C3         0.000            98.23
         C3         0.987            86.49
         C3         1.998            58.72
         C3         2.999            51.56
         C3         3.984            36.41
         N          0.000            50.54
         N          0.994            44.25
         N          2.014            39.35
         N          2.990            31.16

       Values used:

         atom   Coordination number  R0_AB[au]  C6      C8
         B          3.325            3.039     62.90   2506.24
         B          3.317            3.039     62.90   2506.44
         B          3.317            3.039     62.90   2506.43
         B          3.325            3.039     62.90   2506.25
         B          3.327            3.039     62.90   2506.21
         B          3.324            3.039     62.90   2506.27
         B          3.326            3.039     62.90   2506.22
         B          3.325            3.039     62.90   2506.26
         B          3.323            3.039     62.90   2506.30
         B          3.303            3.039     62.91   2506.76
         B          3.322            3.039     62.90   2506.33
         B          3.329            3.039     62.90   2506.15
         B          3.325            3.039     62.90   2506.24
         B          3.324            3.039     62.90   2506.27
         B          3.325            3.039     62.90   2506.26
         B          3.327            3.039     62.90   2506.21
         B          3.297            3.039     62.91   2506.88
         B          3.297            3.039     62.91   2506.90
         B          3.336            3.039     62.89   2505.99
         B          3.329            3.039     62.90   2506.15
         B          3.327            3.039     62.90   2506.21
         B          3.323            3.039     62.90   2506.31
         B          3.319            3.039     62.90   2506.40
         B          3.314            3.039     62.90   2506.51
         C2         3.249            2.750     49.43   1429.56
         B          3.297            3.039     62.91   2506.90
         B          3.322            3.039     62.90   2506.33
         B          3.325            3.039     62.90   2506.25
         B          3.321            3.039     62.90   2506.36
         B          3.319            3.039     62.90   2506.39
         B          3.315            3.039     62.90   2506.50
         B          3.314            3.039     62.90   2506.51
         B          3.297            3.039     62.91   2506.88
         B          3.303            3.039     62.91   2506.76
         B          3.317            3.039     62.90   2506.43
         B          3.316            3.039     62.90   2506.45
         B          3.318            3.039     62.90   2506.42
         B          3.319            3.039     62.90   2506.39
         B          3.319            3.039     62.90   2506.40
         B          3.327            3.039     62.90   2506.21
         B          3.323            3.039     62.90   2506.30
         B          3.317            3.039     62.90   2506.44
         B          3.319            3.039     62.90   2506.40
         B          3.316            3.039     62.90   2506.45
         B          3.321            3.039     62.90   2506.36
         B          3.323            3.039     62.90   2506.31
         B          3.325            3.039     62.90   2506.26
         B          3.325            3.039     62.90   2506.26
         B          3.325            3.039     62.90   2506.24
         N          3.129            2.478     31.22    688.74
         N          3.128            2.478     31.22    688.75
         N          3.125            2.478     31.22    688.79
         N          3.128            2.478     31.22    688.75
         N          3.130            2.478     31.22    688.73
         N          3.129            2.478     31.22    688.75
         N          3.129            2.478     31.22    688.75
         N          3.129            2.478     31.22    688.75
         N          3.129            2.478     31.22    688.74
         N          3.124            2.478     31.22    688.79
         N          3.123            2.478     31.22    688.80
[...]
         N          3.125            2.478     31.22    688.79
         N          3.126            2.478     31.22    688.77
         N          3.126            2.478     31.22    688.77
         N          3.127            2.478     31.22    688.76
         N          3.127            2.478     31.22    688.76
         N          3.129            2.478     31.22    688.74
         N          3.129            2.478     31.22    688.74
         N          3.128            2.478     31.22    688.75
         N          3.129            2.478     31.22    688.74
         N          3.126            2.478     31.22    688.77
         N          3.127            2.478     31.22    688.77
         N          3.129            2.478     31.22    688.75
         N          3.130            2.478     31.22    688.74
         N          3.129            2.478     31.22    688.75
         N          3.129            2.478     31.22    688.74

         Molecular C6 ( Ry / a.u.^6 ) =    437698.49

     gamma-point specific algorithms are used

     Message from routine setup:
     DEPRECATED: symmetry with ibrav=0, use correct ibrav instead

     bravais-lattice index     =            0
     lattice parameter (alat)  =      33.2346  a.u.
     unit-cell volume          =   36184.3878 (a.u.)^3
     number of atoms/cell      =           98
     number of atomic types    =            5
     number of electrons       =       391.00
     number of Kohn-Sham states=          245
     kinetic-energy cutoff     =      40.0000  Ry
     charge density cutoff     =     160.0000  Ry
     convergence threshold     =      1.0E-12
     mixing beta               =       0.7000
     number of iterations used =            8  plain     mixing
     Exchange-correlation      = SLA PW PBX PBC ( 1  4  3  4 0 0)
     nstep                     =           50

     celldm(1)=  33.234611  celldm(2)=   0.000000  celldm(3)=   0.000000
     celldm(4)=   0.000000  celldm(5)=   0.000000  celldm(6)=   0.000000

     crystal axes: (cart. coord. in units of alat)
               a(1) = (   1.000639  -0.000348   0.000000 )
               a(2) = (  -0.500621   0.866405   0.000000 )
               a(3) = (   0.000000   0.000000   1.137204 )

     reciprocal axes: (cart. coord. in units 2 pi/alat)
               b(1) = (  0.999562  0.577561  0.000000 )
               b(2) = (  0.000402  1.154427  0.000000 )
               b(3) = (  0.000000  0.000000  0.879350 )

     PseudoPot. # 1 for B  read from file:
     ./pseudo/B.pbe-n-kjpaw_psl.1.0.0.UPF
     MD5 check sum: 8c825a5969375aca5c2c6ad5945b3059
     Pseudo is Projector augmented-wave + core cor, Zval =  3.0
     Generated using "atomic" code by A. Dal Corso v.6.3
     Shape of augmentation charge: PSQ
     Using radial grid of 1059 points,  4 beta functions with:
                l(1) =   0
                l(2) =   0
                l(3) =   1
                l(4) =   1
     Q(r) pseudized with 0 coefficients

     PseudoPot. # 2 for N  read from file:
     ./pseudo/N.pbe-n-kjpaw_psl.1.0.0.UPF
     MD5 check sum: 14c48229446f9f2d411169a3abcbc3fa
     Pseudo is Projector augmented-wave + core cor, Zval =  5.0
     Generated using "atomic" code by A. Dal Corso v.6.3
     Shape of augmentation charge: PSQ
     Using radial grid of 1085 points,  4 beta functions with:
                l(1) =   0
                l(2) =   0
                l(3) =   1
                l(4) =   1
     Q(r) pseudized with 0 coefficients

     PseudoPot. # 3 for C  read from file:
     ./pseudo/C.pbe-n-kjpaw_psl.1.0.0.UPF
     MD5 check sum: 5f16ad9a65e90284d1d834d4ab3b0f7d
     Pseudo is Projector augmented-wave + core cor, Zval =  4.0
     Generated using "atomic" code by A. Dal Corso v.6.3
     Shape of augmentation charge: PSQ
     Using radial grid of 1073 points,  4 beta functions with:
                l(1) =   0
                l(2) =   0
                l(3) =   1
                l(4) =   1
     Q(r) pseudized with 0 coefficients

[...]

     atomic species   valence    mass     pseudopotential
        B              3.00    10.00000     B ( 1.00)
        N              5.00    14.00000     N ( 1.00)
        C1             4.00    12.00000     C ( 1.00)
        C2             4.00    12.00000     C ( 1.00)
        C3             4.00    12.00000     C ( 1.00)

     Starting magnetic structure
     atomic species   magnetization
        B            0.000
        N            0.000
        C1           1.000
        C2           0.000
        C3           0.000

      2 Sym. Ops. (no inversion) found

   Cartesian axes

     site n.     atom                  positions (alat units)
         1           B   tau(   1) = (  -0.0000236   0.0821617   0.5686018  )
         2           B   tau(   2) = (  -0.0713864   0.2062012   0.5686018  )
         3           B   tau(   3) = (  -0.1430778   0.3301034   0.5686018  )
         4           B   tau(   4) = (  -0.2149371   0.4537631   0.5686018  )
         5           B   tau(   5) = (  -0.2861750   0.5775430   0.5686018  )
         6           B   tau(   6) = (  -0.3574864   0.7014372   0.5686018  )
         7           B   tau(   7) = (  -0.4290708   0.8250954   0.5686018  )
         8           B   tau(   8) = (   0.1428776   0.0818579   0.5686018  )
         9           B   tau(   9) = (   0.0712222   0.2053692   0.5686018  )
        10           B   tau(  10) = (   0.0002336   0.3301363   0.5686018  )
[...]
        98           N   tau(  98) = (   0.5002484   0.7837058   0.5686018  )

     number of k points=     1
                       cart. coord. in units 2pi/alat
        k(    1) = (   0.0000000   0.0000000   0.0000000), wk =   1.0000000

     Occupations read from input

      Spin-up

[...]

      Spin-down

[...]

     Check: negative core charge=   -0.000006

     Initial potential from superposition of free atoms

     starting charge  390.98597, renormalised to  391.00000

     negative rho (up, down):  5.502E-02 6.191E-03
     Starting wfcs are  392 randomized atomic wfcs
     Checking if some PAW data can be deallocated...

     Self-consistent Calculation

[...]

     iteration #  8     ecut=    40.00 Ry     beta= 0.70
     CG style diagonalization
     c_bands:  1 eigenvalues not converged
     ethr =  8.64E-08,  avg # of iterations =  3.9

[...]

     total energy              =   -1940.48613326 Ry
     Harris-Foulkes estimate   =   -1940.48613327 Ry
     estimated scf accuracy    <          1.3E-14 Ry

[...]

     iteration # 27     ecut=    40.00 Ry     beta= 0.70
     CG style diagonalization
     ethr =  1.00E-13,  avg # of iterations =  3.0

[...]

     Magnetic moment per site:
     atom:    1    charge:    0.8506    magn:   -0.0000    constr:    0.0000
     atom:    2    charge:    0.8460    magn:    0.0003    constr:    0.0000
     atom:    3    charge:    0.8474    magn:    0.0007    constr:    0.0000
     atom:    4    charge:    0.8499    magn:   -0.0000    constr:    0.0000
     atom:    5    charge:    0.8524    magn:    0.0000    constr:    0.0000
     atom:    6    charge:    0.8504    magn:    0.0001    constr:    0.0000
     atom:    7    charge:    0.8511    magn:   -0.0000    constr:    0.0000
     atom:    8    charge:    0.8498    magn:    0.0001    constr:    0.0000
     atom:    9    charge:    0.8510    magn:   -0.0003    constr:    0.0000
     atom:   10    charge:    0.8407    magn:    0.0030    constr:    0.0000
     atom:   11    charge:    0.8473    magn:    0.0005    constr:    0.0000
     atom:   12    charge:    0.8537    magn:    0.0001    constr:    0.0000
     atom:   13    charge:    0.8529    magn:   -0.0000    constr:    0.0000
     atom:   14    charge:    0.8504    magn:    0.0001    constr:    0.0000
     atom:   15    charge:    0.8506    magn:   -0.0001    constr:    0.0000
     atom:   16    charge:    0.8542    magn:    0.0001    constr:    0.0000
     atom:   17    charge:    0.8610    magn:    0.0025    constr:    0.0000
     atom:   18    charge:    0.8515    magn:    0.0074    constr:    0.0000
     atom:   19    charge:    0.8613    magn:   -0.0003    constr:    0.0000
     atom:   20    charge:    0.8537    magn:    0.0001    constr:    0.0000
     atom:   21    charge:    0.8524    magn:    0.0000    constr:    0.0000
     atom:   22    charge:    0.8478    magn:    0.0000    constr:    0.0000
     atom:   23    charge:    0.8445    magn:    0.0003    constr:    0.0000
     atom:   24    charge:    0.8439    magn:   -0.0007    constr:    0.0000
     atom:   25    charge:    1.6282    magn:   -0.0264    constr:    0.0000
     atom:   26    charge:    0.8515    magn:    0.0074    constr:    0.0000
     atom:   27    charge:    0.8473    magn:    0.0005    constr:    0.0000
     atom:   28    charge:    0.8499    magn:   -0.0000    constr:    0.0000
     atom:   29    charge:    0.8472    magn:    0.0001    constr:    0.0000
     atom:   30    charge:    0.8485    magn:    0.0000    constr:    0.0000
     atom:   31    charge:    0.8486    magn:   -0.0003    constr:    0.0000
     atom:   32    charge:    0.8439    magn:   -0.0007    constr:    0.0000
     atom:   33    charge:    0.8610    magn:    0.0025    constr:    0.0000
     atom:   34    charge:    0.8407    magn:    0.0030    constr:    0.0000
     atom:   35    charge:    0.8474    magn:    0.0007    constr:    0.0000
     atom:   36    charge:    0.8467    magn:    0.0003    constr:    0.0000
     atom:   37    charge:    0.8466    magn:   -0.0000    constr:    0.0000
     atom:   38    charge:    0.8485    magn:    0.0000    constr:    0.0000
     atom:   39    charge:    0.8445    magn:    0.0003    constr:    0.0000
     atom:   40    charge:    0.8542    magn:    0.0001    constr:    0.0000
     atom:   41    charge:    0.8510    magn:   -0.0003    constr:    0.0000
     atom:   42    charge:    0.8460    magn:    0.0003    constr:    0.0000
     atom:   43    charge:    0.8460    magn:   -0.0000    constr:    0.0000
     atom:   44    charge:    0.8467    magn:    0.0003    constr:    0.0000
     atom:   45    charge:    0.8472    magn:    0.0001    constr:    0.0000
     atom:   46    charge:    0.8478    magn:    0.0000    constr:    0.0000
     atom:   47    charge:    0.8506    magn:   -0.0001    constr:    0.0000
     atom:   48    charge:    0.8498    magn:    0.0001    constr:    0.0000
     atom:   49    charge:    0.8506    magn:   -0.0000    constr:    0.0000
     atom:   50    charge:    2.7562    magn:    0.0005    constr:    0.0000
     atom:   51    charge:    2.7527    magn:   -0.0001    constr:    0.0000
     atom:   52    charge:    2.7468    magn:    0.0029    constr:    0.0000
     atom:   53    charge:    2.7548    magn:    0.0000    constr:    0.0000
     atom:   54    charge:    2.7553    magn:    0.0001    constr:    0.0000
     atom:   55    charge:    2.7523    magn:    0.0000    constr:    0.0000
     atom:   56    charge:    2.7513    magn:   -0.0000    constr:    0.0000
     atom:   57    charge:    2.7519    magn:    0.0003    constr:    0.0000
     atom:   58    charge:    2.7538    magn:    0.0039    constr:    0.0000
     atom:   59    charge:    2.7483    magn:    0.0065    constr:    0.0000
     atom:   60    charge:    2.7448    magn:    0.0123    constr:    0.0000
[...]
     atom:   84    charge:    2.7468    magn:    0.0029    constr:    0.0000
     atom:   85    charge:    2.7511    magn:    0.0004    constr:    0.0000
     atom:   86    charge:    2.7521    magn:   -0.0001    constr:    0.0000
     atom:   87    charge:    2.7515    magn:   -0.0000    constr:    0.0000
     atom:   88    charge:    2.7510    magn:    0.0002    constr:    0.0000
     atom:   89    charge:    2.7570    magn:    0.0003    constr:    0.0000
     atom:   90    charge:    2.7538    magn:    0.0039    constr:    0.0000
     atom:   91    charge:    2.7527    magn:   -0.0001    constr:    0.0000
     atom:   92    charge:    2.7569    magn:   -0.0000    constr:    0.0000
     atom:   93    charge:    2.7511    magn:    0.0004    constr:    0.0000
     atom:   94    charge:    2.7536    magn:    0.0001    constr:    0.0000
     atom:   95    charge:    2.7555    magn:    0.0000    constr:    0.0000
     atom:   96    charge:    2.7575    magn:    0.0000    constr:    0.0000
     atom:   97    charge:    2.7519    magn:    0.0003    constr:    0.0000
     atom:   98    charge:    2.7562    magn:    0.0005    constr:    0.0000

     End of self-consistent calculation

 ------ SPIN UP ------------

[...]

 ------ SPIN DOWN ----------

          k = 0.0000 0.0000 0.0000 ( 77329 PWs)   bands (ev):

   -21.7512 -21.5407 -21.3682 -21.3605 -21.3434 -21.2831 -21.2303 -20.8197
   -20.6252 -20.6080 -20.6058 -20.5234 -20.5117 -20.3913 -20.2660 -20.2589
   -20.2396 -20.0969 -20.0863 -19.5489 -19.3695 -19.3691 -19.3652 -19.3542
   -19.3514 -19.3425 -19.3366 -19.3029 -19.2921 -19.1368 -19.1312 -18.9977
   -18.9459 -18.9444 -18.9163 -18.7446 -18.7384 -18.5153 -18.5084 -18.4951
   -18.4852 -18.4236 -18.4030 -18.3562 -18.3308 -18.3275 -18.3123 -16.8932
   -14.7838 -13.0532 -12.7419 -12.7344 -12.7240 -12.6905 -12.6854 -12.6174
   -12.5425 -12.5082 -12.5036 -12.4411 -12.3858 -12.1263 -12.0442 -12.0304
   -12.0054 -11.9468 -11.9301 -11.5084 -11.3942 -11.3775 -11.3652 -11.3588
   -11.3467 -11.3354 -11.3351 -11.2852 -11.2709 -11.0665 -11.0038 -10.8464
   -10.6967 -10.6848 -10.6428 -10.6388 -10.4784 -10.0418 -10.0083  -9.9734
    -9.8987  -9.8463  -9.7787  -9.3715  -9.2970  -9.2871  -9.2770  -9.2540
    -9.2496  -9.1932  -9.0245  -8.9008  -8.8871  -8.8705  -8.8702  -8.8573
    -8.8515  -8.8410  -8.8408  -8.8262  -8.8031  -8.8010  -8.7954  -8.7936
    -8.7809  -8.7794  -8.7779  -8.7202  -8.7146  -8.6397  -8.6297  -8.6238
    -8.4457  -8.4143  -8.1691  -8.1610  -8.1606  -8.0947  -8.0588  -7.8816
    -7.8256  -7.7919  -7.7774  -7.7738  -7.6898  -7.6772  -7.5225  -7.4724
    -7.4688  -7.4382  -7.4230  -7.4115  -7.4075  -7.3806  -7.3691  -7.3230
    -7.3049  -7.3003  -7.2832  -7.2503  -7.1848  -7.1674  -7.1541  -7.0051
    -7.0019  -6.9712  -6.9186  -6.7651  -6.6123  -6.4862  -6.2018  -6.1629
    -6.1449  -6.1324  -6.0728  -6.0350  -6.0323  -6.0287  -6.0183  -6.0179
    -6.0075  -5.9994  -5.9655  -5.9607  -5.8107  -5.7736  -5.7557  -5.6489
    -5.4836  -5.4176  -5.4103  -5.3968  -5.2688  -5.1839  -5.0377  -5.0206
    -4.7595  -4.7389  -4.7203  -4.7171  -4.6305  -4.6184  -4.5169  -4.4778
    -4.4753  -4.4693  -4.1695  -2.8671   0.1679   0.1893   0.7101   0.7362
     0.7406   0.7519   0.7767   0.7823   0.7960   0.8183   0.8218   0.8225
     0.8254   0.8405   0.8515   0.8887   0.9146   0.9200   0.9372   0.9606
     1.0271   1.1779   1.2585   1.2772   1.2804   1.3158   1.3283   1.3296
     1.3333   1.3403   1.3430   1.3693   1.3991   1.4398   1.4416   1.4423
     1.4494   1.4524   1.4781   1.8872   2.1155   2.1528   2.3254   2.3415
     2.3433   2.3516   2.3599   2.3626   2.4321

     highest occupied, lowest unoccupied level (ev):    -3.5480   -2.8671

!    total energy              =   -1940.48613327 Ry
     Harris-Foulkes estimate   =   -1940.48613326 Ry
     estimated scf accuracy    <          5.6E-15 Ry

     total all-electron energy =     -7770.310610 Ry

     The total energy is the sum of the following terms:

     one-electron contribution =  -10659.50257983 Ry
     hartree contribution      =    5415.63073022 Ry
     xc contribution           =    -430.86214115 Ry
     ewald contribution        =    4377.69813455 Ry
     DFT-D3 Dispersion         =      -0.27040287 Ry
     one-center paw contrib.   =    -643.17987418 Ry

     total magnetization       =     1.00 Bohr mag/cell
     absolute magnetization    =     1.20 Bohr mag/cell

     convergence has been achieved in  27 iterations

     negative rho (up, down):  4.867E-01 5.559E-03

     Forces acting on atoms (cartesian axes, Ry/au):

     atom    1 type  1   force =     0.00001319   -0.00000913    0.00000000
     atom    2 type  1   force =     0.00000689   -0.00000523    0.00000000
     atom    3 type  1   force =    -0.00000290    0.00000936    0.00000000
     atom    4 type  1   force =    -0.00000034    0.00001601    0.00000000
     atom    5 type  1   force =     0.00000934    0.00001122    0.00000000
     atom    6 type  1   force =     0.00000894    0.00000478    0.00000000
     atom    7 type  1   force =     0.00001054   -0.00000257    0.00000000
     atom    8 type  1   force =     0.00000445   -0.00000727    0.00000000
     atom    9 type  1   force =     0.00000613   -0.00000637    0.00000000
     atom   10 type  1   force =    -0.00000518    0.00000138    0.00000000
     atom   11 type  1   force =    -0.00001259    0.00001279    0.00000000
     atom   12 type  1   force =    -0.00000689    0.00001240    0.00000000
     atom   13 type  1   force =    -0.00000040    0.00000314    0.00000000
     atom   14 type  1   force =     0.00000288   -0.00000576    0.00000000
     atom   15 type  1   force =     0.00000154   -0.00001058    0.00000000
     atom   16 type  1   force =     0.00000403   -0.00000970    0.00000000
     atom   17 type  1   force =    -0.00000410   -0.00000260    0.00000000
     atom   18 type  1   force =    -0.00001483    0.00000752    0.00000000
     atom   19 type  1   force =    -0.00001682    0.00001085    0.00000000
     atom   20 type  1   force =    -0.00001343    0.00000360    0.00000000
     atom   21 type  1   force =    -0.00000438   -0.00000988    0.00000000
     atom   22 type  1   force =    -0.00000691   -0.00001310    0.00000000
     atom   23 type  1   force =     0.00000081   -0.00001000    0.00000000
     atom   24 type  1   force =    -0.00000215   -0.00000479    0.00000000
     atom   25 type  4   force =    -0.00001396    0.00001130    0.00000000
     atom   26 type  1   force =    -0.00001313    0.00001025    0.00000000
     atom   27 type  1   force =    -0.00001682    0.00000482    0.00000000
     atom   28 type  1   force =    -0.00001661   -0.00000606    0.00000000
     atom   29 type  1   force =    -0.00000998   -0.00000977    0.00000000
     atom   30 type  1   force =     0.00000112   -0.00001049    0.00000000
     atom   31 type  1   force =     0.00000482   -0.00000509    0.00000000
     atom   32 type  1   force =     0.00000172    0.00000313    0.00000000
     atom   33 type  1   force =    -0.00000136    0.00000548    0.00000000
     atom   34 type  1   force =    -0.00000574    0.00000386    0.00000000
     atom   35 type  1   force =    -0.00001093   -0.00000162    0.00000000
     atom   36 type  1   force =    -0.00000031   -0.00000364    0.00000000
     atom   37 type  1   force =     0.00000336   -0.00000346    0.00000000
     atom   38 type  1   force =     0.00000841    0.00000012    0.00000000
     atom   39 type  1   force =     0.00000736    0.00000043    0.00000000
     atom   40 type  1   force =     0.00000619   -0.00000001    0.00000000
     atom   41 type  1   force =     0.00000385   -0.00000149    0.00000000
     atom   42 type  1   force =     0.00000521   -0.00000176    0.00000000
     atom   43 type  1   force =     0.00001191   -0.00000601    0.00000000
     atom   44 type  1   force =     0.00000361    0.00000096    0.00000000
     atom   45 type  1   force =     0.00000415    0.00001035    0.00000000
     atom   46 type  1   force =     0.00000883    0.00000968    0.00000000
     atom   47 type  1   force =     0.00001034    0.00000560    0.00000000
     atom   48 type  1   force =     0.00000945    0.00000303    0.00000000
     atom   49 type  1   force =     0.00001500   -0.00000301    0.00000000
     atom   50 type  2   force =    -0.00000168    0.00000521    0.00000000
     atom   51 type  2   force =    -0.00000392    0.00000641    0.00000000
     atom   52 type  2   force =    -0.00000330   -0.00000474    0.00000000
     atom   53 type  2   force =    -0.00000017   -0.00001085    0.00000000
     atom   54 type  2   force =    -0.00000352   -0.00000625    0.00000000
     atom   55 type  2   force =    -0.00000924   -0.00000317    0.00000000
     atom   56 type  2   force =    -0.00000486   -0.00000020    0.00000000
     atom   57 type  2   force =     0.00000042    0.00000814    0.00000000
     atom   58 type  2   force =     0.00000127    0.00001028    0.00000000
     atom   59 type  2   force =    -0.00000486    0.00000550    0.00000000
     atom   60 type  2   force =    -0.00000190   -0.00000515    0.00000000
[...]
     atom   84 type  2   force =     0.00000446    0.00000542    0.00000000
     atom   85 type  2   force =     0.00000101   -0.00000036    0.00000000
     atom   86 type  2   force =     0.00000527   -0.00000250    0.00000000
     atom   87 type  2   force =     0.00000302   -0.00000613    0.00000000
     atom   88 type  2   force =    -0.00000081   -0.00000792    0.00000000
     atom   89 type  2   force =    -0.00000344   -0.00000860    0.00000000
     atom   90 type  2   force =    -0.00000619   -0.00000747    0.00000000
     atom   91 type  2   force =    -0.00000569   -0.00000204    0.00000000
     atom   92 type  2   force =    -0.00000637    0.00000093    0.00000000
     atom   93 type  2   force =    -0.00000094   -0.00000095    0.00000000
     atom   94 type  2   force =     0.00000003   -0.00000722    0.00000000
     atom   95 type  2   force =    -0.00000528   -0.00000797    0.00000000
     atom   96 type  2   force =    -0.00000876   -0.00000602    0.00000000
     atom   97 type  2   force =    -0.00000957   -0.00000852    0.00000000
     atom   98 type  2   force =    -0.00000825   -0.00000605    0.00000000

     Total force =     0.000099     Total SCF correction =     0.000000

     Computing stress (Cartesian axis) and pressure

     negative rho (up, down):  4.867E-01 5.559E-03
          total   stress  (Ry/bohr**3)                   (kbar)     P=   -0.16
   0.00000000  -0.00000000   0.00000000          0.00     -0.00      0.00
  -0.00000000  -0.00000000   0.00000000         -0.00     -0.00      0.00
   0.00000000   0.00000000  -0.00000337          0.00      0.00     -0.50

     Writing output data file C2Cn.save/

     General routines

     Parallel routines

   This run was terminated on:  10:52:37   9Jun2021

   JOB DONE.